>> Start of run:  24-APR-2012  17:03:26

reinit: Reading from standard input
************************** Dump of input data file ****************************
SystemName      optical
SystemLabel     optical
NumberOfAtoms   1282
NumberOfSpecies 4
MD.TypeOfRun    CG
MD.NumCGsteps   0
MD.ConstantVolume  .true.
SolutionMethod  diagon
XC.functional   GGA
XC.authors      PBE
PAO.BasisSize   DZP
DM.NumberPulay  7
DM.MixingWeight 0.1
DirectPhi       .true.
MeshCutoff      500 Ry
MaxSCFiterations 200
UseSaveData     .true.
WriteMullikenPop 1
OpticalCalculation      .true.
%block Optical.Mesh
 1 1 1
%endblock Optical.Mesh
Optical.PolarizationType  polarized
%block Optical.Vector
 0.0 1.0 0.0
%endblock Optical.Vector
Optical.Broaden         0.05 eV
Optical.EnergyMinimum   0.001 eV
Optical.EnergyMaximum   100.0 eV
%block ChemicalSpeciesLabel
 1   1   H
 2   6   C
 3   9   F
 4  47   Ag
%endblock ChemicalSpeciesLabel
LatticeConstant 1.0 Ang
%block LatticeParameters
  22.534   24.472   23.649   90.0 90.0 90.0
%endblock LatticeParameters
AtomicCoordinatesFormat Ang
%block AtomicCoordinatesAndAtomicSpecies < struct.coor
%endblock AtomicCoordinatesAndAtomicSpecies
************************** End of input data file *****************************

reinit: -----------------------------------------------------------------------
reinit: System Name: optical
reinit: -----------------------------------------------------------------------
reinit: System Label: optical
reinit: -----------------------------------------------------------------------

initatom: Reading input for the pseudopotentials and atomic orbitals ----------
 Species number:            1  Label: H Atomic number:           1
 Species number:            2  Label: C Atomic number:           6
 Species number:            3  Label: F Atomic number:           9
 Species number:            4  Label: Ag Atomic number:          47
Ground state valence configuration:   1s01
Reading pseudopotential information in formatted form from H.psf

Valence configuration for pseudopotential generation:
1s( 1.00) rc: 1.33
2p( 0.00) rc: 1.33
3d( 0.00) rc: 0.37
4f( 0.00) rc: 1.33
Ground state valence configuration:   2s02  2p02
Reading pseudopotential information in formatted form from C.psf

Valence configuration for pseudopotential generation:
2s( 2.00) rc: 1.56
2p( 2.00) rc: 1.56
3d( 0.00) rc: 1.56
4f( 0.00) rc: 1.56
Ground state valence configuration:   2s02  2p05
Reading pseudopotential information in formatted form from F.psf

Valence configuration for pseudopotential generation:
2s( 2.00) rc: 1.41
2p( 5.00) rc: 1.41
3d( 0.00) rc: 1.41
4f( 0.00) rc: 1.41
Ground state valence configuration:   5s01  4d10
Reading pseudopotential information in formatted form from Ag.psf

Valence configuration for pseudopotential generation:
5s( 1.00) rc: 2.52
5p( 0.00) rc: 2.72
4d(10.00) rc: 2.52
4f( 0.00) rc: 2.52
For H, standard SIESTA heuristics set lmxkb to 2
 (one more than the basis l, including polarization orbitals).
Use PS.lmax or PS.KBprojectors blocks to override.
For C, standard SIESTA heuristics set lmxkb to 3
 (one more than the basis l, including polarization orbitals).
Use PS.lmax or PS.KBprojectors blocks to override.
For F, standard SIESTA heuristics set lmxkb to 3
 (one more than the basis l, including polarization orbitals).
Use PS.lmax or PS.KBprojectors blocks to override.
For Ag, standard SIESTA heuristics set lmxkb to 3
 (one more than the basis l, including polarization orbitals).
Use PS.lmax or PS.KBprojectors blocks to override.

<basis_specs>
H                    Z=   1    Mass=  1.0100        Charge= 0.17977+309
Lmxo=0 Lmxkb= 2    BasisType=split      Semic=F
L=0  Nsemic=0  Cnfigmx=1
          n=1  nzeta=2  polorb=1
            splnorm:   0.15000
               vcte:    0.0000
               rinn:    0.0000
                rcs:    0.0000      0.0000
            lambdas:    1.0000      1.0000
L=0  Nkbl=1  erefs: 0.17977+309
L=1  Nkbl=1  erefs: 0.17977+309
L=2  Nkbl=1  erefs: 0.17977+309
</basis_specs>

atom: Called for H                     (Z =   1)

read_vps: Pseudopotential generation method:
read_vps: ATM 3.2.2 Troullier-Martins
Total valence charge:    1.00000

xc_check: Exchange-correlation functional:
xc_check: GGA Perdew, Burke & Ernzerhof 1996
V l=0 = -2*Zval/r beyond r=  1.2656
V l=1 = -2*Zval/r beyond r=  1.2498
V l=2 = -2*Zval/r beyond r=  0.3563
All V_l potentials equal beyond r=  1.2656
This should be close to max(r_c) in ps generation
All pots = -2*Zval/r beyond r=  1.2656

VLOCAL1: 99.0% of the norm of Vloc inside     27.100 Ry
VLOCAL1: 99.9% of the norm of Vloc inside     61.762 Ry
atom: Maximum radius for 4*pi*r*r*local-pseudopot. charge    1.48935
atom: Maximum radius for r*vlocal+2*Zval:    1.24984
GHOST: No ghost state for L =  0
GHOST: No ghost state for L =  1
GHOST: No ghost state for L =  2

KBgen: Kleinman-Bylander projectors:
   l= 0   rc=  1.398961   el= -0.477209   Ekb= -2.001853   kbcos= -0.352188
   l= 1   rc=  1.470814   el=  0.001006   Ekb= -0.423408   kbcos= -0.024395
   l= 2   rc=  1.489346   el=  0.001895   Ekb= -0.481957   kbcos= -0.001574

KBgen: Total number of  Kleinman-Bylander projectors:    9
atom: -------------------------------------------------------------------------

atom: SANKEY-TYPE ORBITALS:
atom: Selected multiple-zeta basis: split

SPLIT: Orbitals with angular momentum L= 0

SPLIT: Basis orbitals for state 1s

SPLIT: PAO cut-off radius determined from an
SPLIT: energy shift=  0.020000 Ry

   izeta = 1
                 lambda =    1.000000
                     rc =    4.708991
                 energy =   -0.457764
                kinetic =    0.979534
    potential(screened) =   -1.437298
       potential(ionic) =   -1.965615

   izeta = 2
                 rmatch =    3.759707
              splitnorm =    0.150000
                 energy =   -0.339003
                kinetic =    1.582546
    potential(screened) =   -1.921548
       potential(ionic) =   -2.471878

POLgen: Perturbative polarization orbital with L=  1

POLgen: Polarization orbital for state 1s

   izeta = 1
                     rc =    4.708991
                 energy =    0.764951
                kinetic =    1.476882
    potential(screened) =   -0.711931
       potential(ionic) =   -1.204335
atom: Total number of Sankey-type orbitals:  5

atm_pop: Valence configuration (for local Pseudopot. screening):
 1s( 1.00)
Vna: chval, zval:    1.00000   1.00000

Vna:  Cut-off radius for the neutral-atom potential:   4.708991

atom: _________________________________________________________________________

<basis_specs>
C                    Z=   6    Mass=  12.010        Charge= 0.17977+309
Lmxo=1 Lmxkb= 3    BasisType=split      Semic=F
L=0  Nsemic=0  Cnfigmx=2
          n=1  nzeta=2  polorb=0
            splnorm:   0.15000
               vcte:    0.0000
               rinn:    0.0000
                rcs:    0.0000      0.0000
            lambdas:    1.0000      1.0000
L=1  Nsemic=0  Cnfigmx=2
          n=1  nzeta=2  polorb=1
            splnorm:   0.15000
               vcte:    0.0000
               rinn:    0.0000
                rcs:    0.0000      0.0000
            lambdas:    1.0000      1.0000
L=0  Nkbl=1  erefs: 0.17977+309
L=1  Nkbl=1  erefs: 0.17977+309
L=2  Nkbl=1  erefs: 0.17977+309
L=3  Nkbl=1  erefs: 0.17977+309
</basis_specs>

[...]

SPLIT: Basis orbitals for state 2p

[...]

POLgen: Polarization orbital for state 2p

[...]

atm_pop: Valence configuration (for local Pseudopot. screening):
 2s( 2.00)
 2p( 2.00)
Vna: chval, zval:    4.00000   4.00000

[...]

SPLIT: Basis orbitals for state 2p

[...]

POLgen: Polarization orbital for state 2p

[...]

atm_pop: Valence configuration (for local Pseudopot. screening):
 2s( 2.00)
 2p( 5.00)
Vna: chval, zval:    7.00000   7.00000

[...]

<basis_specs>
Ag                   Z=  47    Mass=  107.87        Charge= 0.17977+309
Lmxo=2 Lmxkb= 3    BasisType=split      Semic=F
L=0  Nsemic=0  Cnfigmx=5
          n=1  nzeta=2  polorb=1
            splnorm:   0.15000
               vcte:    0.0000
               rinn:    0.0000
                rcs:    0.0000      0.0000
            lambdas:    1.0000      1.0000
L=1  Nsemic=0  Cnfigmx=5
L=2  Nsemic=0  Cnfigmx=4
          n=1  nzeta=2  polorb=0
            splnorm:   0.15000
               vcte:    0.0000
               rinn:    0.0000
                rcs:    0.0000      0.0000
            lambdas:    1.0000      1.0000
L=0  Nkbl=1  erefs: 0.17977+309
L=1  Nkbl=1  erefs: 0.17977+309
L=2  Nkbl=1  erefs: 0.17977+309
L=3  Nkbl=1  erefs: 0.17977+309
</basis_specs>

atom: Called for Ag                    (Z =  47)

read_vps: Pseudopotential generation method:
read_vps: ATM 3.2.2 Troullier-Martins
Total valence charge:   11.00000

xc_check: Exchange-correlation functional:
xc_check: GGA Perdew, Burke & Ernzerhof 1996
V l=0 = -2*Zval/r beyond r=  2.4592
V l=1 = -2*Zval/r beyond r=  2.6507
V l=2 = -2*Zval/r beyond r=  2.4592
V l=3 = -2*Zval/r beyond r=  2.4592
All V_l potentials equal beyond r=  2.6507
This should be close to max(r_c) in ps generation
All pots = -2*Zval/r beyond r=  2.6507

VLOCAL1: 99.0% of the norm of Vloc inside      6.178 Ry
VLOCAL1: 99.9% of the norm of Vloc inside     14.079 Ry
atom: Maximum radius for 4*pi*r*r*local-pseudopot. charge    3.19739
atom: Maximum radius for r*vlocal+2*Zval:    2.82168
GHOST: No ghost state for L =  0
GHOST: No ghost state for L =  1
GHOST: No ghost state for L =  2
GHOST: No ghost state for L =  3

KBgen: Kleinman-Bylander projectors:
   l= 0   rc=  2.966357   el= -0.323666   Ekb=  3.565490   kbcos=  0.247453
   l= 1   rc=  3.003670   el= -0.054265   Ekb=  1.619308   kbcos=  0.223076
   l= 2   rc=  2.786631   el= -0.547066   Ekb= -7.840816   kbcos= -0.714112
   l= 3   rc=  3.079709   el=  0.002953   Ekb= -2.732950   kbcos= -0.012571

KBgen: Total number of  Kleinman-Bylander projectors:   16
atom: -------------------------------------------------------------------------

atom: SANKEY-TYPE ORBITALS:
atom: Selected multiple-zeta basis: split

[...]

SPLIT: Basis orbitals for state 5s

[...]

SPLIT: Orbitals with angular momentum L= 2

SPLIT: Basis orbitals for state 4d

SPLIT: PAO cut-off radius determined from an
SPLIT: energy shift=  0.020000 Ry

   izeta = 1
                 lambda =    1.000000
                     rc =    3.954440
                 energy =   -0.527442
                kinetic =    6.210364
    potential(screened) =   -6.737807
       potential(ionic) =  -18.733043

   izeta = 2
                 rmatch =    2.490121
              splitnorm =    0.150000
                 energy =   -0.148928
                kinetic =    8.576261
    potential(screened) =   -8.725189
       potential(ionic) =  -21.658221

POLgen: Perturbative polarization orbital with L=  1

POLgen: Polarization orbital for state 5s

   izeta = 1
                     rc =    6.684855
                 energy =   -0.001728
                kinetic =    0.597115
    potential(screened) =   -0.598843
       potential(ionic) =   -7.554613
atom: Total number of Sankey-type orbitals: 15

atm_pop: Valence configuration (for local Pseudopot. screening):
 5s( 1.00)
 5p( 0.00)
 4d(10.00)
Vna: chval, zval:   11.00000  11.00000

[...]
              0.002   0.005   0.006   0.004   0.001
  36  6.909   1.451   0.289   1.789   1.576   1.616   0.018   0.091   0.061
              0.003   0.003   0.004   0.006   0.003
  37  6.901   1.438   0.296   1.417   1.776   1.765   0.120   0.031   0.039
              0.005   0.005   0.003   0.001   0.005
  42  6.944   1.463   0.279   1.794   1.403   1.871   0.007   0.116  -0.008
              0.002   0.006   0.006   0.005   0.001
  43  6.944   1.462   0.281   1.621   1.701   1.762   0.045   0.039   0.015
              0.005   0.005   0.003   0.003   0.004
  48  6.938   1.462   0.281   1.871   1.523   1.682  -0.013   0.086   0.027
              0.002   0.003   0.005   0.006   0.003
  49  6.948   1.447   0.290   1.425   1.840   1.863   0.092  -0.012  -0.016
              0.005   0.005   0.002   0.002   0.006
  54  6.917   1.462   0.282   1.663   1.887   1.432   0.066  -0.009   0.114
              0.006   0.002   0.003   0.005   0.004
  55  6.939   1.462   0.280   1.401   1.865   1.795   0.122  -0.011   0.005
              0.005   0.005   0.003   0.002   0.005
  60  6.876   1.428   0.306   1.725   1.394   1.787   0.042   0.147   0.026
              0.003   0.006   0.006   0.005   0.002
  61  6.949   1.452   0.285   1.556   1.664   1.894   0.060   0.044  -0.026
              0.005   0.006   0.003   0.002   0.004
  66  6.931   1.466   0.279   1.829   1.487   1.718   0.001   0.091   0.042
              0.002   0.004   0.006   0.006   0.002
  67  6.927   1.455   0.287   1.402   1.832   1.800   0.121  -0.003   0.016
              0.006   0.005   0.003   0.002   0.005
  72  6.925   1.445   0.292   1.568   1.683   1.784   0.065   0.052   0.015
              0.004   0.005   0.003   0.003   0.004
  73  6.946   1.474   0.274   1.675   1.569   1.828   0.042   0.060   0.005
              0.003   0.006   0.004   0.005   0.003
  78  6.934   1.446   0.289   1.799   1.377   1.885   0.000   0.136  -0.020
              0.002   0.006   0.006   0.005   0.002
  79  6.931   1.451   0.288   1.489   1.732   1.835   0.097   0.021  -0.001
              0.005   0.005   0.003   0.002   0.004
  84  6.937   1.457   0.285   1.493   1.895   1.684   0.101  -0.025   0.029
              0.006   0.003   0.003   0.002   0.005
  85  6.960   1.471   0.273   1.836   1.556   1.730  -0.006   0.063   0.016
              0.003   0.004   0.006   0.006   0.002
  90  6.952   1.462   0.281   1.478   1.727   1.890   0.084   0.029  -0.020
              0.004   0.006   0.004   0.002   0.005
  91  6.935   1.469   0.278   1.778   1.786   1.460   0.020   0.027   0.096
              0.005   0.002   0.003   0.005   0.005
[...]
              0.002   0.005   0.005   0.005   0.002
1231  6.944   1.459   0.282   1.505   1.719   1.866   0.072   0.028  -0.007
              0.005   0.006   0.003   0.002   0.004
1236  6.913   1.450   0.289   1.738   1.505   1.743   0.026   0.107   0.035
              0.003   0.005   0.005   0.004   0.002
1237  6.921   1.460   0.285   1.523   1.789   1.691   0.089   0.018   0.048
              0.006   0.004   0.003   0.003   0.005
1242  6.942   1.473   0.275   1.723   1.493   1.838   0.028   0.090   0.001
              0.003   0.006   0.005   0.004   0.002
1243  6.912   1.460   0.285   1.533   1.714   1.723   0.084   0.043   0.051
              0.005   0.005   0.003   0.003   0.004
1248  6.935   1.462   0.280   1.664   1.791   1.586   0.057   0.009   0.067
              0.005   0.003   0.003   0.004   0.004
1249  6.926   1.461   0.282   1.624   1.752   1.670   0.044   0.024   0.050
              0.005   0.004   0.003   0.003   0.003

Species: Ag
Atom  Qatom  Qorb
1251 11.068   0.255   0.507   1.864   1.912   1.897   1.913   1.871   0.034
              0.016   0.024   0.014   0.036   0.256   0.206   0.262
1252 11.102   0.595   0.389   1.937   1.953   1.935   1.965   1.917  -0.005
             -0.011  -0.006  -0.017  -0.001   0.184   0.143   0.124
1253 11.031   0.503   0.418   1.920   1.905   1.901   1.939   1.901   0.011
              0.020   0.014   0.003   0.011   0.208   0.146   0.131
1254 11.040   0.502   0.370   1.910   1.979   1.923   1.919   1.930   0.007
             -0.016   0.003   0.005   0.001   0.151   0.149   0.205
1255 11.039   0.459   0.400   1.915   1.941   1.919   1.973   1.938   0.006
             -0.006   0.001  -0.013  -0.001   0.174   0.147   0.185
1256 11.015   0.466   0.397   1.914   1.986   1.924   1.930   1.927   0.005
             -0.020  -0.001  -0.002   0.004   0.153   0.125   0.207
1257 11.034   0.554   0.376   1.913   1.941   1.919   1.942   1.915   0.005
             -0.003   0.001   0.001   0.010   0.156   0.125   0.180
1258 11.082   0.507   0.345   1.899   1.928   1.922   1.914   1.884   0.014
              0.006   0.014   0.010   0.022   0.184   0.176   0.256
1259 11.025   0.556   0.362   1.913   1.969   1.936   1.935   1.959   0.005
             -0.012  -0.006  -0.005  -0.010   0.153   0.129   0.140
1260 10.984   0.263   0.472   1.879   1.903   1.903   1.911   1.894   0.028
              0.019   0.026   0.018   0.021   0.241   0.194   0.213
1261 10.983   0.272   0.496   1.863   1.904   1.911   1.916   1.881   0.037
              0.018   0.021   0.015   0.024   0.224   0.200   0.201
1262 11.100   0.715   0.340   1.957   1.947   1.937   1.910   1.926  -0.013
             -0.011  -0.011   0.015   0.000   0.139   0.131   0.118
1263 11.016   0.631   0.388   1.899   1.911   1.900   1.965   1.923   0.018
              0.013   0.009  -0.011   0.001   0.134   0.130   0.104
1264 11.075   0.368   0.504   1.881   1.897   1.894   1.907   1.892   0.025
              0.021   0.022   0.017   0.021   0.227   0.173   0.226
1265 11.049   0.313   0.566   1.876   1.912   1.897   1.908   1.871   0.026
              0.015   0.020   0.015   0.031   0.221   0.180   0.200
1266 11.044   0.292   0.547   1.902   1.923   1.900   1.898   1.882   0.016
              0.008   0.018   0.022   0.026   0.204   0.179   0.227
1267 11.000   0.607   0.286   1.926   1.981   1.946   1.921   1.986  -0.003
             -0.020  -0.009   0.000  -0.023   0.116   0.142   0.143
1268 11.011   0.528   0.430   1.953   1.913   1.928   1.954   1.897  -0.009
              0.008   0.003  -0.006   0.014   0.129   0.140   0.129
1269 10.925   0.403   0.426   1.941   1.915   1.908   1.923   1.927   0.002
              0.010   0.016   0.012   0.004   0.150   0.131   0.158
1270 11.107   0.483   0.435   1.931   1.874   1.873   1.923   1.889   0.008
              0.026   0.023   0.011   0.020   0.222   0.233   0.157
1271 11.062   0.444   0.444   1.917   1.861   1.880   1.909   1.900   0.014
              0.035   0.022   0.019   0.018   0.222   0.220   0.156
1272 11.103   0.449   0.459   1.909   1.908   1.880   1.888   1.921   0.013
              0.016   0.020   0.020   0.010   0.174   0.229   0.208
1273 11.082   0.447   0.437   1.915   1.918   1.882   1.890   1.920   0.012
              0.012   0.020   0.020   0.011   0.166   0.223   0.210
1274 11.107   0.554   0.368   1.906   1.913   1.877   1.887   1.917   0.015
              0.013   0.022   0.021   0.012   0.174   0.220   0.209
1275 11.070   0.401   0.473   1.907   1.906   1.877   1.868   1.912   0.015
              0.018   0.026   0.033   0.020   0.180   0.226   0.210
1276 11.072   0.157   0.579   1.881   1.887   1.875   1.889   1.880   0.032
              0.031   0.032   0.030   0.032   0.257   0.255   0.256
1277 11.047   0.329   0.549   1.870   1.877   1.904   1.893   1.862   0.033
              0.031   0.018   0.025   0.031   0.206   0.194   0.224
1278 11.007   0.594   0.315   1.929   1.987   1.945   1.926   1.962  -0.004
             -0.024  -0.008  -0.002  -0.011   0.113   0.148   0.136
1279 11.041   0.298   0.537   1.869   1.912   1.896   1.916   1.886   0.029
              0.014   0.019   0.013   0.022   0.223   0.190   0.219
1280 11.020   0.313   0.522   1.860   1.877   1.895   1.900   1.883   0.039
              0.031   0.023   0.023   0.027   0.212   0.207   0.207
1281 10.896   0.330   0.429   1.930   1.920   1.917   1.949   1.890   0.008
              0.009   0.013   0.003   0.025   0.155   0.162   0.156
1282 11.007   0.596   0.350   1.936   1.944   1.942   1.967   1.935  -0.003
             -0.009  -0.008  -0.015  -0.007   0.128   0.128   0.122

mulliken: Qtot =     5346.000

siesta: Program's energy decomposition (eV):
siesta: Ebs     =    -75968.058163
siesta: Eions   =    528240.072706
siesta: Ena     =     58052.815933
siesta: Ekin    =    270086.825391
siesta: Enl     =    -93479.224957
siesta: DEna    =       229.961972
siesta: DUscf   =       347.364585
siesta: DUext   =         0.000000
siesta: Exc     =    -81901.690879
siesta: eta*DQ  =         0.000000
siesta: Emadel  =         0.000000
siesta: Emeta   =         0.000000
siesta: Emolmec =         0.000000
siesta: Ekinion =         0.000000
siesta: Eharris =   -374904.039154
siesta: Etot    =   -374904.020661
siesta: FreeEng =   -374904.061481

siesta: Final energy (eV):
siesta:  Band Struct. =  -75968.058163
siesta:       Kinetic =  270086.825391
siesta:       Hartree =  179337.313192
siesta:    Ext. field =       0.000000
siesta:   Exch.-corr. =  -81901.690879
siesta:  Ion-electron = -598346.950103
siesta:       Ion-ion = -144079.518262
siesta:       Ekinion =       0.000000
siesta:         Total = -374904.020661

siesta: Atomic forces (eV/Ang):
siesta:      1    0.620491   -0.529042    0.423587
siesta:      2   -0.199110    0.810425    0.240048
siesta:      3   -0.395131   -0.165762    0.671708
siesta:      4   -0.504498   -0.439294   -0.467765
siesta:      5   -0.311769    0.130689    0.932309
siesta:      6   -0.038523   -1.468058   -0.823223
siesta:      7    1.226998    1.936860   -0.609217
siesta:      8    0.210767    0.907666   -0.248178
siesta:      9   -0.301161   -1.021398    0.589481
siesta:     10    0.497542   -0.381355   -0.523526
siesta:     11   -0.145394    0.292849   -0.592647
siesta:     12   -0.930057    0.778804    0.517907
siesta:     13    0.969327   -1.301419    0.635866
siesta:     14   -0.203880   -0.451975   -0.661930
siesta:     15    0.003538    0.327383   -0.432863
siesta:     16   -0.005861    0.530868    0.997723
siesta:     17    0.046260   -0.389666    0.321453
siesta:     18   -0.359590   -1.747543   -1.453668
siesta:     19    0.231955    1.455688   -0.131548
siesta:     20   -0.341396   -0.341668    0.399750
siesta:     21    0.209895    0.445362    0.191556
siesta:     22   -0.384761   -0.056578    1.083386
siesta:     23   -0.797403   -0.267264   -0.817738
siesta:     24    0.809237    0.290987   -1.745046
siesta:     25    0.838725    0.050444    1.286872
siesta:     26   -0.312451    0.088633    0.119102
siesta:     27    0.124478   -0.434591    0.816301
siesta:     28   -0.454929   -0.208129   -0.218003
siesta:     29    0.444719    0.524449    0.328996
siesta:     30   -0.753031   -1.174839    0.624857
siesta:     31    0.280532    0.648650   -1.010271
siesta:     32    0.173438    1.004299    0.450128
siesta:     33   -0.091873   -0.551779   -0.417976
siesta:     34    0.282078    0.521098   -0.321132
siesta:     35   -0.006214    0.546649   -0.298112
siesta:     36   -1.015742    0.101550    1.145315
siesta:     37    0.937011   -1.436522   -0.916609
siesta:     38    0.130058   -0.276228   -0.367364
siesta:     39   -0.189530    0.891249    0.257018
siesta:     40   -0.052394   -0.468300    0.888586
siesta:     41    0.123110   -0.785135   -0.139780
siesta:     42   -0.073608    0.421172   -1.441345
siesta:     43    0.356376    0.766376    0.804313
siesta:     44   -0.600547    0.791100   -0.175581
siesta:     45    0.077691   -0.321527    0.760062
siesta:     46   -0.499314   -0.807137   -0.615640
siesta:     47   -0.297356    0.375045   -0.652052
siesta:     48    0.567917    0.809782    0.757502
siesta:     49   -0.122131   -1.319599   -0.407627
siesta:     50   -0.113096    0.048908   -0.058887
siesta:     51   -0.085658    0.951518    0.369384
siesta:     52    0.868132    0.020760    0.098610
siesta:     53    0.632799   -0.168158    0.112022
siesta:     54   -1.151905   -1.210848    0.100760
siesta:     55   -0.112738    1.317798   -0.413694
siesta:     56    0.379751   -0.197557    0.436616
siesta:     57    0.178555   -0.808973    0.291531
siesta:     58   -0.521566   -0.148525   -0.385989
siesta:     59    0.252777   -0.240608    1.129004
siesta:     60   -0.584335    0.451175   -1.250618
[...]
siesta:   1268    0.433945    0.427365    0.809553
siesta:   1269   -0.527969    0.499321    0.905110
siesta:   1270   -0.351735    0.027572   -0.023176
siesta:   1271    0.441056   -0.001461    0.063524
siesta:   1272   -0.302805   -0.196989   -0.033843
siesta:   1273   -0.163356    0.312315    0.177709
siesta:   1274    0.227459   -0.308438    0.066411
siesta:   1275    0.180977    0.713300   -0.006325
siesta:   1276   -0.073402   -0.073954   -0.065165
siesta:   1277   -0.270512   -0.311361   -0.348629
siesta:   1278    0.137696    0.871867   -0.494293
siesta:   1279   -0.274544   -0.074345   -0.361924
siesta:   1280    0.621626    0.421805   -0.350630
siesta:   1281   -0.646033   -0.799862   -0.641029
siesta:   1282    0.779177   -0.278734   -0.686792
siesta: ----------------------------------------
siesta:    Tot   -0.224362    0.026335   -0.065281

siesta: Stress tensor (static) (eV/Ang**3):
siesta:     0.001510   -0.006608    0.000028
siesta:    -0.006608    0.001338    0.002002
siesta:     0.000028    0.002002   -0.003542

siesta: Cell volume =      13041.289483 Ang**3

siesta: Pressure (static):
siesta:                Solid            Molecule  Units
siesta:           0.00000252         -0.00028404  Ry/Bohr**3
siesta:           0.00023149         -0.02607915  eV/Ang**3
siesta:           0.37088447        -41.78385360  kBar
(Free)E+ p_basis*V_orbitals  =     -374628.461952
(Free)Eharris+ p_basis*V_orbitals  =     -374628.487639

Optical: Performing optical calculation:

Optical: Polarization type       = polarized
Optical: Minimum of energy range =   0.0001 Ry
Optical: Maximum of energy range =   7.3498 Ry
Optical: Gaussian broadening     =   0.0037 Ry
Optical: Scissor operator        =   0.0000 Ry
Optical: Number of bands         =    13386
Optical: BZ mesh dimensions      =    1   1   1

Optical: electric field direction
Optical:      0.00000     1.00000     0.00000

Optical: Checking f-sum rule  0.880158
Optical: For insulators and closed shell systems
Optical: this number should be close to 1 if an enough
Optical: number of unoccupied bands have been included

elaps:  Routine       Calls   Time/call    Tot.time        %
elaps:  siesta            1   70879.152   70879.152   100.00
elaps:  Setup             1       3.883       3.883     0.01
elaps:  bands             1       0.000       0.000     0.00
elaps:  writewave         1       0.001       0.001     0.00
elaps:  KSV_init          1       0.000       0.000     0.00
elaps:  IterMD            1    4271.739    4271.739     6.03
elaps:  hsparse           1       0.530       0.530     0.00
elaps:  overlap           1       1.627       1.627     0.00
elaps:  IterSCF          22     191.813    4219.883     5.95
elaps:  kinefsm           2       0.841       1.681     0.00
elaps:  nlefsm            2       4.445       8.890     0.01
elaps:  DHSCF            23      22.492     517.323     0.73
elaps:  DHSCF1            1       0.771       0.771     0.00
elaps:  DHSCF2            1      18.404      18.404     0.03
elaps:  REORD           140       0.002       0.218     0.00
elaps:  POISON           24       0.671      16.108     0.02
elaps:  DHSCF3           23      21.239     488.507     0.69
elaps:  rhoofd           23       6.553     150.724     0.21
elaps:  cellXC           23       1.316      30.269     0.04
elaps:  vmat             23      10.621     244.279     0.34
elaps:  MolMec            2       0.002       0.005     0.00
elaps:  diagon           22     151.904    3341.889     4.71
elaps:  r-eigvec         22     144.883    3187.427     4.50
elaps:  r-buildHS        22       0.025       0.543     0.00
elaps:  rdiag            23     144.879    3332.210     4.70
elaps:  rdiag1           23       4.836     111.226     0.16
elaps:  rdiag2           23      27.905     641.804     0.91
elaps:  rdiag3           23     100.267    2306.137     3.25
elaps:  rdiag4           23      10.772     247.766     0.35
elaps:  r-buildD         22       7.011     154.249     0.22
elaps:  DHSCF4            1       9.519       9.519     0.01
elaps:  dfscf             1       8.510       8.510     0.01
elaps:  overfsm           1       0.093       0.093     0.00
elaps:  optical           1   66602.508   66602.508    93.97
elaps:  phirphiopt        1      30.043      30.043     0.04
elaps:  transrate         1   66422.081   66422.081    93.71

>> End of run:   2-MAY-2012  23:42:10