>> Start of run:  30-AUG-2014   7:11:33

reinit: Reading from standard input
************************** Dump of input data file ****************************
SystemName      optical
SystemLabel     optical
NumberOfAtoms   1282
NumberOfSpecies 4
MD.TypeOfRun    CG
MD.NumCGsteps   0
MD.ConstantVolume  .true.
SolutionMethod  diagon
XC.functional   GGA
XC.authors      PBE
PAO.BasisSize   DZP
DM.NumberPulay  7
DM.MixingWeight 0.1
DirectPhi       .true.
MeshCutoff      500 Ry
MaxSCFiterations 200
UseSaveData     .true.
WriteMullikenPop 1
PAO.EnergyShift 0.001 Ry
WriteDM.NetCDF .false.
WriteDMHS.NetCDF .false.
OpticalCalculation      .true.
%block Optical.Mesh
 1 1 1
%endblock Optical.Mesh
Optical.PolarizationType  polarized
%block Optical.Vector
 0.0 1.0 0.0
%endblock Optical.Vector
Optical.Broaden         0.05 eV
Optical.EnergyMinimum   0.001 eV
Optical.EnergyMaximum   100.0 eV
%block ChemicalSpeciesLabel
 1   1   H
 2   6   C
 3   9   F
 4  47   Ag
%endblock ChemicalSpeciesLabel
LatticeConstant 1.0 Ang
%block LatticeParameters
  22.534   24.472   23.649   90.0 90.0 90.0
%endblock LatticeParameters
AtomicCoordinatesFormat Ang
%block AtomicCoordinatesAndAtomicSpecies < struct.coor
%endblock AtomicCoordinatesAndAtomicSpecies
************************** End of input data file *****************************

reinit: -----------------------------------------------------------------------
reinit: System Name: optical
reinit: -----------------------------------------------------------------------
reinit: System Label: optical
reinit: -----------------------------------------------------------------------

initatom: Reading input for the pseudopotentials and atomic orbitals ----------
 Species number:            1  Label: H Atomic number:           1
 Species number:            2  Label: C Atomic number:           6
 Species number:            3  Label: F Atomic number:           9
 Species number:            4  Label: Ag Atomic number:          47
Ground state valence configuration:   1s01
Reading pseudopotential information in formatted form from H.psf

Valence configuration for pseudopotential generation:
1s( 1.00) rc: 1.33
2p( 0.00) rc: 1.33
3d( 0.00) rc: 0.37
4f( 0.00) rc: 1.33
Ground state valence configuration:   2s02  2p02
Reading pseudopotential information in formatted form from C.psf

Valence configuration for pseudopotential generation:
2s( 2.00) rc: 1.56
2p( 2.00) rc: 1.56
3d( 0.00) rc: 1.56
4f( 0.00) rc: 1.56
Ground state valence configuration:   2s02  2p05
Reading pseudopotential information in formatted form from F.psf

Valence configuration for pseudopotential generation:
2s( 2.00) rc: 1.41
2p( 5.00) rc: 1.41
3d( 0.00) rc: 1.41
4f( 0.00) rc: 1.41
Ground state valence configuration:   5s01  4d10
Reading pseudopotential information in formatted form from Ag.psf

Valence configuration for pseudopotential generation:
5s( 1.00) rc: 2.52
5p( 0.00) rc: 2.72
4d(10.00) rc: 2.52
4f( 0.00) rc: 2.52
For H, standard SIESTA heuristics set lmxkb to 2
 (one more than the basis l, including polarization orbitals).
Use PS.lmax or PS.KBprojectors blocks to override.
For C, standard SIESTA heuristics set lmxkb to 3
 (one more than the basis l, including polarization orbitals).
Use PS.lmax or PS.KBprojectors blocks to override.
For F, standard SIESTA heuristics set lmxkb to 3
 (one more than the basis l, including polarization orbitals).
Use PS.lmax or PS.KBprojectors blocks to override.
For Ag, standard SIESTA heuristics set lmxkb to 3
 (one more than the basis l, including polarization orbitals).
Use PS.lmax or PS.KBprojectors blocks to override.

<basis_specs>
H                    Z=   1    Mass=  1.0100        Charge= 0.17977+309
Lmxo=0 Lmxkb= 2    BasisType=split      Semic=F
L=0  Nsemic=0  Cnfigmx=1
          n=1  nzeta=2  polorb=1
            splnorm:   0.15000
               vcte:    0.0000
               rinn:    0.0000
                rcs:    0.0000      0.0000
            lambdas:   1.00000     1.00000
L=0  Nkbl=1  erefs: 0.17977+309
L=1  Nkbl=1  erefs: 0.17977+309
L=2  Nkbl=1  erefs: 0.17977+309
</basis_specs>

atom: Called for H                     (Z =   1)

read_vps: Pseudopotential generation method:
read_vps: ATM 3.2.2 Troullier-Martins
Total valence charge:    1.00000

xc_check: Exchange-correlation functional:
xc_check: GGA Perdew, Burke & Ernzerhof 1996
V l=0 = -2*Zval/r beyond r=  1.2656
V l=1 = -2*Zval/r beyond r=  1.2498
V l=2 = -2*Zval/r beyond r=  0.3563
All V_l potentials equal beyond r=  1.2656
This should be close to max(r_c) in ps generation
All pots = -2*Zval/r beyond r=  1.2656

VLOCAL1: 99.0% of the norm of Vloc inside     27.100 Ry
VLOCAL1: 99.9% of the norm of Vloc inside     61.762 Ry
atom: Maximum radius for 4*pi*r*r*local-pseudopot. charge    1.48935
atom: Maximum radius for r*vlocal+2*Zval:    1.24984
GHOST: No ghost state for L =  0
GHOST: No ghost state for L =  1
GHOST: No ghost state for L =  2

KBgen: Kleinman-Bylander projectors:
   l= 0   rc=  1.398961   el= -0.477209   Ekb= -2.001853   kbcos= -0.352188
   l= 1   rc=  1.470814   el=  0.001006   Ekb= -0.423408   kbcos= -0.024395
   l= 2   rc=  1.489346   el=  0.001895   Ekb= -0.481957   kbcos= -0.001574

KBgen: Total number of  Kleinman-Bylander projectors:    9
atom: -------------------------------------------------------------------------

atom: SANKEY-TYPE ORBITALS:
atom: Selected multiple-zeta basis: split

SPLIT: Orbitals with angular momentum L= 0

SPLIT: Basis orbitals for state 1s

SPLIT: PAO cut-off radius determined from an
SPLIT: energy shift=  0.001000 Ry

   izeta = 1
                 lambda =    1.000000
                     rc =    7.026209
                 energy =   -0.476258
                kinetic =    0.873901
    potential(screened) =   -1.350160
       potential(ionic) =   -1.868508

   izeta = 2
                 rmatch =    4.103729
              splitnorm =    0.150000
                 energy =   -0.388153
                kinetic =    1.411813
    potential(screened) =   -1.799966
       potential(ionic) =   -2.346436

POLgen: Perturbative polarization orbital with L=  1

POLgen: Polarization orbital for state 1s

   izeta = 1
                     rc =    7.026209
                 energy =    0.513491
                kinetic =    1.100165
    potential(screened) =   -0.586674
       potential(ionic) =   -1.048593
atom: Total number of Sankey-type orbitals:  5

atm_pop: Valence configuration (for local Pseudopot. screening):
 1s( 1.00)
Vna: chval, zval:    1.00000   1.00000

Vna:  Cut-off radius for the neutral-atom potential:   7.026209

atom: _________________________________________________________________________

<basis_specs>
C                    Z=   6    Mass=  12.010        Charge= 0.17977+309
Lmxo=1 Lmxkb= 3    BasisType=split      Semic=F
L=0  Nsemic=0  Cnfigmx=2
          n=1  nzeta=2  polorb=0
            splnorm:   0.15000
               vcte:    0.0000
               rinn:    0.0000
                rcs:    0.0000      0.0000
            lambdas:   1.00000     1.00000
L=1  Nsemic=0  Cnfigmx=2
          n=1  nzeta=2  polorb=1
            splnorm:   0.15000
               vcte:    0.0000
               rinn:    0.0000
                rcs:    0.0000      0.0000
            lambdas:   1.00000     1.00000
L=0  Nkbl=1  erefs: 0.17977+309
L=1  Nkbl=1  erefs: 0.17977+309
L=2  Nkbl=1  erefs: 0.17977+309
L=3  Nkbl=1  erefs: 0.17977+309
</basis_specs>

[...]

SPLIT: Basis orbitals for state 2p

[...]

POLgen: Polarization orbital for state 2p

[...]

atm_pop: Valence configuration (for local Pseudopot. screening):
 2s( 2.00)
 2p( 2.00)
Vna: chval, zval:    4.00000   4.00000

[...]

SPLIT: Basis orbitals for state 2p

[...]

POLgen: Polarization orbital for state 2p

[...]

atm_pop: Valence configuration (for local Pseudopot. screening):
 2s( 2.00)
 2p( 5.00)
Vna: chval, zval:    7.00000   7.00000

[...]

<basis_specs>
Ag                   Z=  47    Mass=  107.87        Charge= 0.17977+309
Lmxo=2 Lmxkb= 3    BasisType=split      Semic=F
L=0  Nsemic=0  Cnfigmx=5
          n=1  nzeta=2  polorb=1
            splnorm:   0.15000
               vcte:    0.0000
               rinn:    0.0000
                rcs:    0.0000      0.0000
            lambdas:   1.00000     1.00000
L=1  Nsemic=0  Cnfigmx=5
L=2  Nsemic=0  Cnfigmx=4
          n=1  nzeta=2  polorb=0
            splnorm:   0.15000
               vcte:    0.0000
               rinn:    0.0000
                rcs:    0.0000      0.0000
            lambdas:   1.00000     1.00000
L=0  Nkbl=1  erefs: 0.17977+309
L=1  Nkbl=1  erefs: 0.17977+309
L=2  Nkbl=1  erefs: 0.17977+309
L=3  Nkbl=1  erefs: 0.17977+309
</basis_specs>

atom: Called for Ag                    (Z =  47)

read_vps: Pseudopotential generation method:
read_vps: ATM 3.2.2 Troullier-Martins
Total valence charge:   11.00000

xc_check: Exchange-correlation functional:
xc_check: GGA Perdew, Burke & Ernzerhof 1996
V l=0 = -2*Zval/r beyond r=  2.4592
V l=1 = -2*Zval/r beyond r=  2.6507
V l=2 = -2*Zval/r beyond r=  2.4592
V l=3 = -2*Zval/r beyond r=  2.4592
All V_l potentials equal beyond r=  2.6507
This should be close to max(r_c) in ps generation
All pots = -2*Zval/r beyond r=  2.6507

VLOCAL1: 99.0% of the norm of Vloc inside      6.178 Ry
VLOCAL1: 99.9% of the norm of Vloc inside     14.079 Ry
atom: Maximum radius for 4*pi*r*r*local-pseudopot. charge    3.19739
atom: Maximum radius for r*vlocal+2*Zval:    2.82168
GHOST: No ghost state for L =  0
GHOST: No ghost state for L =  1
GHOST: No ghost state for L =  2
GHOST: No ghost state for L =  3

KBgen: Kleinman-Bylander projectors:
   l= 0   rc=  2.966357   el= -0.323666   Ekb=  3.565490   kbcos=  0.247453
   l= 1   rc=  3.003670   el= -0.054265   Ekb=  1.619308   kbcos=  0.223076
   l= 2   rc=  2.786631   el= -0.547066   Ekb= -7.840816   kbcos= -0.714112
   l= 3   rc=  3.079709   el=  0.002953   Ekb= -2.732950   kbcos= -0.012571

KBgen: Total number of  Kleinman-Bylander projectors:   16
atom: -------------------------------------------------------------------------

atom: SANKEY-TYPE ORBITALS:
atom: Selected multiple-zeta basis: split

[...]

SPLIT: Basis orbitals for state 5s

[...]

SPLIT: Orbitals with angular momentum L= 2

SPLIT: Basis orbitals for state 4d

SPLIT: PAO cut-off radius determined from an
SPLIT: energy shift=  0.001000 Ry

   izeta = 1
                 lambda =    1.000000
                     rc =    5.899358
                 energy =   -0.546288
                kinetic =    5.940648
    potential(screened) =   -6.486936
       potential(ionic) =  -18.280755

   izeta = 2
                 rmatch =    2.650723
              splitnorm =    0.150000
                 energy =   -0.238526
                kinetic =    8.222011
    potential(screened) =   -8.460537
       potential(ionic) =  -21.296963

POLgen: Perturbative polarization orbital with L=  1

POLgen: Polarization orbital for state 5s

   izeta = 1
                     rc =    9.486283
                 energy =   -0.053026
                kinetic =    0.478302
    potential(screened) =   -0.531328
       potential(ionic) =   -7.012902
atom: Total number of Sankey-type orbitals: 15

atm_pop: Valence configuration (for local Pseudopot. screening):
 5s( 1.00)
[...]
  36  7.123   1.820   0.055   1.849   1.970   1.292  -0.022  -0.053   0.186
              0.007   0.003   0.004   0.006   0.006
  37  7.118   1.797   0.066   1.478   1.896   1.728   0.115  -0.028   0.036
              0.007   0.008   0.005   0.004   0.006
  42  7.131   1.801   0.067   1.847   1.684   1.575  -0.009   0.053   0.090
              0.005   0.004   0.003   0.006   0.007
  43  7.139   1.811   0.060   1.794   1.390   1.938   0.011   0.156  -0.046
              0.003   0.007   0.005   0.005   0.004
  48  7.156   1.821   0.055   1.793   1.439   1.943   0.005   0.124  -0.048
              0.002   0.007   0.008   0.003   0.004
  49  7.146   1.827   0.052   1.965   1.917   1.269  -0.051  -0.037   0.182
              0.006   0.001   0.003   0.005   0.008
  54  7.140   1.815   0.059   1.341   1.836   1.967   0.157  -0.010  -0.051
              0.007   0.006   0.003   0.002   0.007
  55  7.128   1.790   0.074   1.917   1.319   1.876  -0.035   0.181  -0.017
              0.002   0.005   0.008   0.007   0.003
  60  7.126   1.805   0.067   1.524   1.802   1.780   0.103   0.009   0.012
              0.006   0.005   0.004   0.004   0.004
  61  7.164   1.824   0.053   1.685   1.951   1.564   0.040  -0.049   0.073
              0.007   0.002   0.003   0.006   0.004
  66  7.158   1.820   0.054   1.451   1.905   1.820   0.126  -0.037  -0.006
              0.006   0.004   0.003   0.004   0.006
  67  7.141   1.812   0.060   1.848   1.649   1.638  -0.007   0.060   0.058
              0.005   0.003   0.006   0.007   0.004
  72  7.134   1.805   0.064   1.755   1.933   1.428   0.022  -0.040   0.143
              0.007   0.004   0.004   0.005   0.004
  73  7.136   1.807   0.062   1.599   1.950   1.565   0.076  -0.044   0.096
              0.007   0.005   0.004   0.004   0.004
  78  7.156   1.812   0.059   1.989   1.490   1.711  -0.064   0.110   0.025
              0.004   0.005   0.003   0.008   0.003
  79  7.139   1.810   0.063   1.946   1.561   1.638  -0.042   0.087   0.053
              0.006   0.004   0.003   0.008   0.004
  84  7.144   1.813   0.060   1.916   1.864   1.375  -0.037  -0.016   0.146
              0.006   0.002   0.003   0.005   0.008
  85  7.140   1.804   0.063   1.795   1.398   1.950   0.001   0.150  -0.047
              0.002   0.008   0.007   0.004   0.003
  90  7.140   1.804   0.064   1.904   1.917   1.322  -0.031  -0.038   0.172
              0.004   0.001   0.004   0.008   0.007
  91  7.153   1.821   0.055   1.249   1.972   1.945   0.186  -0.054  -0.046
              0.004   0.007   0.003   0.001   0.008
[...]
              0.003   0.003   0.004   0.007   0.005
1231  7.138   1.807   0.061   1.587   1.656   1.885   0.083   0.059  -0.025
              0.004   0.006   0.004   0.004   0.006
1236  7.153   1.814   0.059   1.982   1.832   1.357  -0.061  -0.012   0.158
              0.006   0.003   0.003   0.007   0.005
1237  7.125   1.799   0.068   1.967   1.466   1.672  -0.051   0.125   0.054
              0.002   0.007   0.006   0.007   0.002
1242  7.146   1.814   0.059   1.480   1.798   1.869   0.117   0.003  -0.018
              0.004   0.006   0.004   0.004   0.006
1243  7.137   1.794   0.071   1.904   1.671   1.562  -0.030   0.046   0.096
              0.004   0.004   0.005   0.007   0.004
1248  7.136   1.799   0.070   1.733   1.454   1.918   0.037   0.134  -0.032
              0.003   0.007   0.004   0.005   0.003
1249  7.146   1.805   0.067   1.765   1.544   1.831   0.022   0.098  -0.007
              0.003   0.006   0.003   0.005   0.004

Species: Ag
Atom  Qatom  Qorb
1251 10.833  -0.569   1.020   1.950   1.956   1.956   1.962   1.949   0.006
              0.008   0.009   0.006   0.006   0.221   0.142   0.212
1252 11.005   0.118   0.668   1.965   1.970   1.962   1.975   1.965   0.008
              0.003   0.005   0.003   0.001   0.156   0.101   0.105
1253 10.965  -0.029   0.757   1.963   1.959   1.947   1.971   1.952   0.011
              0.010   0.011   0.008   0.009   0.185   0.103   0.109
1254 10.854  -0.227   0.849   1.963   1.980   1.963   1.969   1.970   0.005
              0.003   0.008   0.002   0.002   0.108   0.113   0.147
1255 10.880  -0.136   0.784   1.963   1.969   1.960   1.972   1.963   0.003
              0.008   0.008   0.005   0.007   0.119   0.097   0.157
1256 11.045   0.157   0.667   1.961   1.976   1.956   1.961   1.963   0.006
              0.005   0.009   0.009   0.004   0.103   0.096   0.173
1257 10.969  -0.072   0.818   1.958   1.966   1.956   1.971   1.965   0.005
              0.010   0.006   0.007   0.003   0.138   0.098   0.139
1258 11.047  -0.036   0.714   1.950   1.955   1.954   1.953   1.946   0.010
              0.015   0.014   0.012   0.012   0.151   0.164   0.233
1259 10.956   0.144   0.646   1.962   1.975   1.963   1.966   1.977   0.004
              0.009   0.004   0.009   0.001   0.098   0.089   0.109
1260 11.038   0.023   0.665   1.940   1.950   1.953   1.953   1.948   0.013
              0.015   0.017   0.016   0.013   0.211   0.152   0.170
1261 11.041   0.005   0.694   1.948   1.956   1.956   1.956   1.948   0.011
              0.013   0.013   0.013   0.010   0.197   0.156   0.164
1262 10.964   0.099   0.708   1.968   1.970   1.965   1.977   1.966   0.007
              0.004   0.003   0.003   0.002   0.102   0.084   0.105
1263 10.950   0.035   0.740   1.965   1.965   1.956   1.972   1.963   0.007
              0.008   0.009   0.006   0.006   0.121   0.094   0.106
1264 11.067   0.010   0.732   1.943   1.952   1.952   1.951   1.947   0.011
              0.013   0.014   0.016   0.012   0.186   0.162   0.168
1265 11.020  -0.021   0.729   1.944   1.957   1.953   1.958   1.950   0.009
              0.009   0.012   0.010   0.010   0.195   0.143   0.162
1266 10.989  -0.069   0.751   1.956   1.957   1.953   1.957   1.949   0.007
              0.014   0.011   0.011   0.010   0.136   0.142   0.205
1267 10.902  -0.038   0.718   1.962   1.976   1.967   1.961   1.967   0.008
              0.009   0.005   0.006   0.014   0.100   0.123   0.124
1268 10.762  -0.426   1.007   1.971   1.965   1.964   1.973   1.966   0.006
              0.007   0.004   0.008   0.004   0.103   0.108   0.103
1269 11.006   0.265   0.584   1.970   1.962   1.964   1.968   1.964   0.010
              0.011   0.009   0.008   0.006   0.094   0.101   0.091
1270 10.875  -0.390   0.952   1.959   1.945   1.947   1.963   1.955   0.010
              0.012   0.008   0.009   0.007   0.188   0.186   0.124
1271 11.027  -0.130   0.859   1.965   1.949   1.946   1.965   1.953   0.007
              0.008   0.006   0.008   0.010   0.182   0.189   0.110
1272 10.868  -0.467   1.059   1.956   1.962   1.946   1.954   1.962   0.008
              0.008   0.007   0.007   0.008   0.117   0.174   0.168
1273 11.044   0.056   0.691   1.956   1.960   1.948   1.954   1.960   0.009
              0.011   0.007   0.008   0.008   0.137   0.177   0.160
1274 11.236   0.439   0.484   1.954   1.956   1.941   1.948   1.959   0.011
              0.009   0.011   0.011   0.010   0.127   0.199   0.177
1275 10.976  -0.200   0.869   1.955   1.957   1.949   1.955   1.960   0.010
              0.008   0.006   0.006   0.009   0.156   0.188   0.148
1276 10.837  -0.577   1.022   1.967   1.969   1.963   1.971   1.963  -0.005
             -0.005  -0.005  -0.005  -0.005   0.193   0.196   0.196
1277 11.088   0.003   0.785   1.949   1.955   1.951   1.956   1.940   0.011
              0.012   0.009   0.008   0.010   0.174   0.142   0.182
1278 11.023   0.156   0.671   1.956   1.975   1.962   1.959   1.972   0.007
              0.007   0.009   0.010   0.008   0.112   0.101   0.118
1279 11.020  -0.014   0.731   1.947   1.959   1.953   1.958   1.949   0.010
              0.008   0.011   0.010   0.010   0.180   0.134   0.173
1280 10.856  -0.558   1.114   1.948   1.955   1.947   1.962   1.950   0.012
              0.005   0.008   0.006   0.010   0.178   0.150   0.169
1281 10.999   0.180   0.601   1.972   1.969   1.967   1.973   1.963   0.007
              0.005   0.007   0.003   0.005   0.110   0.119   0.118
1282 10.825  -0.337   0.902   1.963   1.964   1.964   1.970   1.965   0.010
              0.013   0.007   0.006   0.009   0.137   0.115   0.138

mulliken: Qtot =     5346.000

siesta: Program's energy decomposition (eV):
siesta: Ebs     =    -85223.813232
siesta: Eions   =    528240.073050
siesta: Ena     =     62907.967175
siesta: Ekin    =    267467.113121
siesta: Enl     =    -92672.882458
siesta: DEna    =     -3771.752358
siesta: DUscf   =       459.588998
siesta: DUext   =         0.000000
siesta: Exc     =    -81428.901342
siesta: eta*DQ  =         0.000000
siesta: Emadel  =         0.000000
siesta: Emeta   =         0.000000
siesta: Emolmec =         0.000000
siesta: Ekinion =         0.000000
siesta: Eharris =   -375278.986413
siesta: Etot    =   -375278.939914
siesta: FreeEng =   -375278.999142

siesta: Final energy (eV):
siesta:  Band Struct. =  -85223.813232
siesta:       Kinetic =  267467.113121
siesta:       Hartree =  179123.871515
siesta:    Ext. field =       0.000000
siesta:   Exch.-corr. =  -81428.901342
siesta:  Ion-electron = -605171.843585
siesta:       Ion-ion = -135269.179624
siesta:       Ekinion =       0.000000
siesta:         Total = -375278.939914

siesta: Atomic forces (eV/Ang):
siesta:      1   -0.805620    0.656266    0.375522
siesta:      2    0.773149   -0.276530   -0.252655
siesta:      3   -0.525032    0.109665   -0.401181
siesta:      4   -0.246230   -0.226338    0.048967
siesta:      5   -0.787203    0.407124   -0.797447
siesta:      6    0.194660   -0.348993    2.015876
siesta:      7    2.042606    0.505399   -0.544158
siesta:      8    0.309675   -0.219154   -0.656720
siesta:      9   -0.532450    0.119578   -0.430277
siesta:     10   -0.379530    0.165291    0.585392
siesta:     11    0.231478   -1.837527   -1.209483
siesta:     12   -1.779779    1.135373   -0.364475
siesta:     13    1.472572    0.199374    1.773359
siesta:     14    0.100065   -1.297503   -0.464425
siesta:     15    0.046826    1.015292    0.014739
siesta:     16    0.527773   -0.212340    0.307157
siesta:     17    0.926162   -0.229504    0.586431
siesta:     18   -2.065439   -0.456689   -0.027966
siesta:     19    0.356948    1.524813   -1.025126
siesta:     20    0.756849    0.253202    0.524030
siesta:     21    0.477848   -0.477825    0.675945
siesta:     22   -0.268012   -0.593695   -0.183907
siesta:     23   -0.101556    0.957546    0.900468
siesta:     24    0.725884   -1.020488    0.026925
siesta:     25   -0.778865    0.857012   -1.243233
siesta:     26   -0.341781   -0.448624    0.423077
siesta:     27    0.141079   -0.118583   -0.617240
siesta:     28   -0.067823    0.584230    0.100332
siesta:     29   -0.495824   -0.900510   -0.343898
siesta:     30    0.853578    1.086986   -0.830608
siesta:     31   -0.889638    0.150845    2.140691
siesta:     32   -0.352237   -0.509000    0.041249
siesta:     33    0.087218   -0.412038   -0.460323
siesta:     34    0.588619    0.187389    0.038732
siesta:     35   -0.051162    1.528195    0.591945
siesta:     36   -1.229302    0.291506    0.246088
siesta:     37    1.789290   -1.170657   -1.202068
siesta:     38    0.216936    0.070979    0.154116
siesta:     39    0.031367    0.652127    0.357671
siesta:     40   -0.581512   -0.221540    0.540779
siesta:     41   -1.365292   -0.701578   -0.166821
siesta:     42    1.467789    0.293309   -1.303653
siesta:     43   -0.083675    0.849395    1.371785
siesta:     44   -0.003276   -0.146221    0.355998
siesta:     45   -0.035810   -0.580040   -0.723945
siesta:     46    0.739530    0.121018   -0.094500
siesta:     47    0.319061   -0.083967   -0.190710
siesta:     48    0.360965    0.746687    1.115447
siesta:     49   -1.223626   -0.134826   -0.193482
siesta:     50    0.459724    0.569531   -0.482401
siesta:     51   -0.531408    0.085017    0.553585
siesta:     52   -0.141900   -0.476525   -0.332711
siesta:     53    0.016510    0.563756    1.008307
siesta:     54   -0.630411   -1.398294    0.836650
siesta:     55    0.916959    0.024638   -2.115583
siesta:     56   -0.582403    0.256240    0.436213
siesta:     57    0.644921    0.405347   -0.526524
siesta:     58   -0.322966    0.649872    0.533671
siesta:     59   -0.984642   -0.030115    0.175626
siesta:     60    0.443943   -1.269475   -0.452280
[...]
siesta:   1268    0.814085    0.325071    0.239985
siesta:   1269   -0.571786    0.118184    0.005113
siesta:   1270   -0.438014    0.543029   -0.251459
siesta:   1271    0.076626    0.279195    0.220401
siesta:   1272    0.095965   -0.296380   -0.161214
siesta:   1273    0.304342    0.151381    0.448706
siesta:   1274   -0.196226    0.206117    0.051910
siesta:   1275    0.290292    0.105016    0.212954
siesta:   1276   -0.007825    0.035088    0.006121
siesta:   1277   -0.081647    0.196301    0.213190
siesta:   1278    0.312975    0.231564   -0.645441
siesta:   1279   -0.064468    0.121644   -0.075740
siesta:   1280    0.491108    0.400431   -0.462524
siesta:   1281   -0.557172   -1.200777   -0.166843
siesta:   1282    0.868326   -0.367698   -0.622109
siesta: ----------------------------------------
siesta:    Tot   -0.036269    0.035940   -0.023637

siesta: Stress tensor (static) (eV/Ang**3):
siesta:    -0.040263    0.000106    0.002901
siesta:     0.000106   -0.033290    0.000921
siesta:     0.002901    0.000921   -0.043777

siesta: Cell volume =      13041.289483 Ang**3

siesta: Pressure (static):
siesta:                Solid            Molecule  Units
siesta:           0.00042596          0.00034613  Ry/Bohr**3
siesta:           0.03910999          0.03178062  eV/Ang**3
siesta:          62.66178684         50.91871812  kBar
(Free)E+ p_basis*V_orbitals  =     -374494.287523
(Free)Eharris+ p_basis*V_orbitals  =     -374494.345721

Optical: Performing optical calculation:

Optical: Polarization type       = polarized
Optical: Minimum of energy range =   0.0001 Ry
Optical: Maximum of energy range =   7.3498 Ry
Optical: Gaussian broadening     =   0.0037 Ry
Optical: Scissor operator        =   0.0000 Ry
Optical: Number of bands         =    13386
Optical: Number of electrons     =     5346
Optical: BZ mesh dimensions      =    1   1   1

Optical: electric field direction
Optical:      0.00000     1.00000     0.00000

Optical: Checking f-sum rule  0.887204
Optical: For insulators and closed shell systems
Optical: this number should be close to 1 if an enough
Optical: number of unoccupied bands have been included

elaps:  Routine       Calls   Time/call    Tot.time        %
elaps:  siesta            1   31655.660   31655.660   100.00
elaps:  Setup             1       1.252       1.252     0.00
elaps:  bands             1       0.000       0.000     0.00
elaps:  writewave         1       0.001       0.001     0.00
elaps:  KSV_init          1       0.000       0.000     0.00
elaps:  IterMD            1    4368.277    4368.277    13.80
elaps:  hsparse           1       1.747       1.747     0.01
elaps:  overlap           1       1.629       1.629     0.01
elaps:  IterSCF          23     183.970    4231.311    13.37
elaps:  kinefsm           2       0.924       1.848     0.01
elaps:  nlefsm            2       8.539      17.078     0.05
elaps:  DHSCF            24      87.213    2093.117     6.61
elaps:  DHSCF1            1       1.015       1.015     0.00
elaps:  DHSCF2            1      61.941      61.941     0.20
elaps:  REORD           146       0.001       0.200     0.00
elaps:  POISON           25       2.640      65.990     0.21
elaps:  DHSCF3           24      83.001    1992.018     6.29
elaps:  rhoofd           24      35.443     850.623     2.69
elaps:  cellXC           24       1.137      27.294     0.09
elaps:  vmat             24      38.765     930.364     2.94
elaps:  MolMec            2       0.002       0.003     0.00
elaps:  diagon           23      95.058    2186.329     6.91
elaps:  r-eigvec         23      86.436    1988.018     6.28
elaps:  r-buildHS        23       0.018       0.424     0.00
elaps:  rdiag            24      86.327    2071.838     6.54
elaps:  rdiag1           24       2.804      67.299     0.21
elaps:  rdiag2           24      16.764     402.339     1.27
elaps:  rdiag3           24      54.608    1310.597     4.14
elaps:  rdiag4           24       5.511     132.265     0.42
elaps:  r-buildD         23       8.613     198.097     0.63
elaps:  DHSCF4            1      38.065      38.065     0.12
elaps:  dfscf             1      35.223      35.223     0.11
elaps:  overfsm           1       0.244       0.244     0.00
elaps:  optical           1   27285.578   27285.578    86.19
elaps:  phirphiopt        1      40.285      40.285     0.13
elaps:  transrate         1   27155.439   27155.439    85.78

>> End of run:   2-SEP-2014   3:38:17