>> Start of run:   2-SEP-2014   1:32:54

reinit: Reading from standard input
************************** Dump of input data file ****************************
SystemName      optical
SystemLabel     optical
NumberOfAtoms   1282
NumberOfSpecies 4
MD.TypeOfRun    CG
MD.NumCGsteps   0
MD.ConstantVolume  .true.
SolutionMethod  diagon
XC.functional   GGA
XC.authors      PBE
PAO.BasisSize   DZP
DM.NumberPulay  7
DM.MixingWeight 0.1
DirectPhi       .true.
MeshCutoff      500 Ry
MaxSCFiterations 200
UseSaveData     .true.
WriteMullikenPop 1
PAO.EnergyShift 0.001 Ry
WriteDM.NetCDF .false.
WriteDMHS.NetCDF .false.
OpticalCalculation      .true.
%block Optical.Mesh
 1 1 1
%endblock Optical.Mesh
Optical.PolarizationType  polarized
%block Optical.Vector
 0.0 0.0 1.0
%endblock Optical.Vector
Optical.Broaden         0.05 eV
Optical.EnergyMinimum   0.001 eV
Optical.EnergyMaximum   100.0 eV
%block ChemicalSpeciesLabel
 1   1   H
 2   6   C
 3   9   F
 4  47   Ag
%endblock ChemicalSpeciesLabel
LatticeConstant 1.0 Ang
%block LatticeParameters
  22.534   24.472   23.649   90.0 90.0 90.0
%endblock LatticeParameters
AtomicCoordinatesFormat Ang
%block AtomicCoordinatesAndAtomicSpecies < struct.coor
%endblock AtomicCoordinatesAndAtomicSpecies
************************** End of input data file *****************************

reinit: -----------------------------------------------------------------------
reinit: System Name: optical
reinit: -----------------------------------------------------------------------
reinit: System Label: optical
reinit: -----------------------------------------------------------------------

initatom: Reading input for the pseudopotentials and atomic orbitals ----------
 Species number:            1  Label: H Atomic number:           1
 Species number:            2  Label: C Atomic number:           6
 Species number:            3  Label: F Atomic number:           9
 Species number:            4  Label: Ag Atomic number:          47
Ground state valence configuration:   1s01
Reading pseudopotential information in formatted form from H.psf

Valence configuration for pseudopotential generation:
1s( 1.00) rc: 1.33
2p( 0.00) rc: 1.33
3d( 0.00) rc: 0.37
4f( 0.00) rc: 1.33
Ground state valence configuration:   2s02  2p02
Reading pseudopotential information in formatted form from C.psf

Valence configuration for pseudopotential generation:
2s( 2.00) rc: 1.56
2p( 2.00) rc: 1.56
3d( 0.00) rc: 1.56
4f( 0.00) rc: 1.56
Ground state valence configuration:   2s02  2p05
Reading pseudopotential information in formatted form from F.psf

Valence configuration for pseudopotential generation:
2s( 2.00) rc: 1.41
2p( 5.00) rc: 1.41
3d( 0.00) rc: 1.41
4f( 0.00) rc: 1.41
Ground state valence configuration:   5s01  4d10
Reading pseudopotential information in formatted form from Ag.psf

Valence configuration for pseudopotential generation:
5s( 1.00) rc: 2.52
5p( 0.00) rc: 2.72
4d(10.00) rc: 2.52
4f( 0.00) rc: 2.52
For H, standard SIESTA heuristics set lmxkb to 2
 (one more than the basis l, including polarization orbitals).
Use PS.lmax or PS.KBprojectors blocks to override.
For C, standard SIESTA heuristics set lmxkb to 3
 (one more than the basis l, including polarization orbitals).
Use PS.lmax or PS.KBprojectors blocks to override.
For F, standard SIESTA heuristics set lmxkb to 3
 (one more than the basis l, including polarization orbitals).
Use PS.lmax or PS.KBprojectors blocks to override.
For Ag, standard SIESTA heuristics set lmxkb to 3
 (one more than the basis l, including polarization orbitals).
Use PS.lmax or PS.KBprojectors blocks to override.

<basis_specs>
H                    Z=   1    Mass=  1.0100        Charge= 0.17977+309
Lmxo=0 Lmxkb= 2    BasisType=split      Semic=F
L=0  Nsemic=0  Cnfigmx=1
          n=1  nzeta=2  polorb=1
            splnorm:   0.15000
               vcte:    0.0000
               rinn:    0.0000
                rcs:    0.0000      0.0000
            lambdas:   1.00000     1.00000
L=0  Nkbl=1  erefs: 0.17977+309
L=1  Nkbl=1  erefs: 0.17977+309
L=2  Nkbl=1  erefs: 0.17977+309
</basis_specs>

atom: Called for H                     (Z =   1)

read_vps: Pseudopotential generation method:
read_vps: ATM 3.2.2 Troullier-Martins
Total valence charge:    1.00000

xc_check: Exchange-correlation functional:
xc_check: GGA Perdew, Burke & Ernzerhof 1996
V l=0 = -2*Zval/r beyond r=  1.2656
V l=1 = -2*Zval/r beyond r=  1.2498
V l=2 = -2*Zval/r beyond r=  0.3563
All V_l potentials equal beyond r=  1.2656
This should be close to max(r_c) in ps generation
All pots = -2*Zval/r beyond r=  1.2656

VLOCAL1: 99.0% of the norm of Vloc inside     27.100 Ry
VLOCAL1: 99.9% of the norm of Vloc inside     61.762 Ry
atom: Maximum radius for 4*pi*r*r*local-pseudopot. charge    1.48935
atom: Maximum radius for r*vlocal+2*Zval:    1.24984
GHOST: No ghost state for L =  0
GHOST: No ghost state for L =  1
GHOST: No ghost state for L =  2

KBgen: Kleinman-Bylander projectors:
   l= 0   rc=  1.398961   el= -0.477209   Ekb= -2.001853   kbcos= -0.352188
   l= 1   rc=  1.470814   el=  0.001006   Ekb= -0.423408   kbcos= -0.024395
   l= 2   rc=  1.489346   el=  0.001895   Ekb= -0.481957   kbcos= -0.001574

KBgen: Total number of  Kleinman-Bylander projectors:    9
atom: -------------------------------------------------------------------------

atom: SANKEY-TYPE ORBITALS:
atom: Selected multiple-zeta basis: split

SPLIT: Orbitals with angular momentum L= 0

SPLIT: Basis orbitals for state 1s

SPLIT: PAO cut-off radius determined from an
SPLIT: energy shift=  0.001000 Ry

   izeta = 1
                 lambda =    1.000000
                     rc =    7.026209
                 energy =   -0.476258
                kinetic =    0.873901
    potential(screened) =   -1.350160
       potential(ionic) =   -1.868508

   izeta = 2
                 rmatch =    4.103729
              splitnorm =    0.150000
                 energy =   -0.388153
                kinetic =    1.411813
    potential(screened) =   -1.799966
       potential(ionic) =   -2.346436

POLgen: Perturbative polarization orbital with L=  1

POLgen: Polarization orbital for state 1s

   izeta = 1
                     rc =    7.026209
                 energy =    0.513491
                kinetic =    1.100165
    potential(screened) =   -0.586674
       potential(ionic) =   -1.048593
atom: Total number of Sankey-type orbitals:  5

atm_pop: Valence configuration (for local Pseudopot. screening):
 1s( 1.00)
Vna: chval, zval:    1.00000   1.00000

Vna:  Cut-off radius for the neutral-atom potential:   7.026209

atom: _________________________________________________________________________

<basis_specs>
C                    Z=   6    Mass=  12.010        Charge= 0.17977+309
Lmxo=1 Lmxkb= 3    BasisType=split      Semic=F
L=0  Nsemic=0  Cnfigmx=2
          n=1  nzeta=2  polorb=0
            splnorm:   0.15000
               vcte:    0.0000
               rinn:    0.0000
                rcs:    0.0000      0.0000
            lambdas:   1.00000     1.00000
L=1  Nsemic=0  Cnfigmx=2
          n=1  nzeta=2  polorb=1
            splnorm:   0.15000
               vcte:    0.0000
               rinn:    0.0000
                rcs:    0.0000      0.0000
            lambdas:   1.00000     1.00000
L=0  Nkbl=1  erefs: 0.17977+309
L=1  Nkbl=1  erefs: 0.17977+309
L=2  Nkbl=1  erefs: 0.17977+309
L=3  Nkbl=1  erefs: 0.17977+309
</basis_specs>

[...]

SPLIT: Basis orbitals for state 2p

[...]

POLgen: Polarization orbital for state 2p

[...]

atm_pop: Valence configuration (for local Pseudopot. screening):
 2s( 2.00)
 2p( 2.00)
Vna: chval, zval:    4.00000   4.00000

[...]

SPLIT: Basis orbitals for state 2p

[...]

POLgen: Polarization orbital for state 2p

[...]

atm_pop: Valence configuration (for local Pseudopot. screening):
 2s( 2.00)
 2p( 5.00)
Vna: chval, zval:    7.00000   7.00000

[...]

<basis_specs>
Ag                   Z=  47    Mass=  107.87        Charge= 0.17977+309
Lmxo=2 Lmxkb= 3    BasisType=split      Semic=F
L=0  Nsemic=0  Cnfigmx=5
          n=1  nzeta=2  polorb=1
            splnorm:   0.15000
               vcte:    0.0000
               rinn:    0.0000
                rcs:    0.0000      0.0000
            lambdas:   1.00000     1.00000
L=1  Nsemic=0  Cnfigmx=5
L=2  Nsemic=0  Cnfigmx=4
          n=1  nzeta=2  polorb=0
            splnorm:   0.15000
               vcte:    0.0000
               rinn:    0.0000
                rcs:    0.0000      0.0000
            lambdas:   1.00000     1.00000
L=0  Nkbl=1  erefs: 0.17977+309
L=1  Nkbl=1  erefs: 0.17977+309
L=2  Nkbl=1  erefs: 0.17977+309
L=3  Nkbl=1  erefs: 0.17977+309
</basis_specs>

atom: Called for Ag                    (Z =  47)

read_vps: Pseudopotential generation method:
read_vps: ATM 3.2.2 Troullier-Martins
Total valence charge:   11.00000

xc_check: Exchange-correlation functional:
xc_check: GGA Perdew, Burke & Ernzerhof 1996
V l=0 = -2*Zval/r beyond r=  2.4592
V l=1 = -2*Zval/r beyond r=  2.6507
V l=2 = -2*Zval/r beyond r=  2.4592
V l=3 = -2*Zval/r beyond r=  2.4592
All V_l potentials equal beyond r=  2.6507
This should be close to max(r_c) in ps generation
All pots = -2*Zval/r beyond r=  2.6507

VLOCAL1: 99.0% of the norm of Vloc inside      6.178 Ry
VLOCAL1: 99.9% of the norm of Vloc inside     14.079 Ry
atom: Maximum radius for 4*pi*r*r*local-pseudopot. charge    3.19739
atom: Maximum radius for r*vlocal+2*Zval:    2.82168
GHOST: No ghost state for L =  0
GHOST: No ghost state for L =  1
GHOST: No ghost state for L =  2
GHOST: No ghost state for L =  3

KBgen: Kleinman-Bylander projectors:
   l= 0   rc=  2.966357   el= -0.323666   Ekb=  3.565490   kbcos=  0.247453
   l= 1   rc=  3.003670   el= -0.054265   Ekb=  1.619308   kbcos=  0.223076
   l= 2   rc=  2.786631   el= -0.547066   Ekb= -7.840816   kbcos= -0.714112
   l= 3   rc=  3.079709   el=  0.002953   Ekb= -2.732950   kbcos= -0.012571

KBgen: Total number of  Kleinman-Bylander projectors:   16
atom: -------------------------------------------------------------------------

atom: SANKEY-TYPE ORBITALS:
atom: Selected multiple-zeta basis: split

[...]

SPLIT: Basis orbitals for state 5s

[...]

SPLIT: Orbitals with angular momentum L= 2

SPLIT: Basis orbitals for state 4d

SPLIT: PAO cut-off radius determined from an
SPLIT: energy shift=  0.001000 Ry

   izeta = 1
                 lambda =    1.000000
                     rc =    5.899358
                 energy =   -0.546288
                kinetic =    5.940648
    potential(screened) =   -6.486936
       potential(ionic) =  -18.280755

   izeta = 2
                 rmatch =    2.650723
              splitnorm =    0.150000
                 energy =   -0.238526
                kinetic =    8.222011
    potential(screened) =   -8.460537
       potential(ionic) =  -21.296963

POLgen: Perturbative polarization orbital with L=  1

POLgen: Polarization orbital for state 5s

   izeta = 1
                     rc =    9.486283
                 energy =   -0.053026
                kinetic =    0.478302
    potential(screened) =   -0.531328
       potential(ionic) =   -7.012902
atom: Total number of Sankey-type orbitals: 15

atm_pop: Valence configuration (for local Pseudopot. screening):
 5s( 1.00)
[...]
  36  7.142   1.812   0.061   1.920   1.713   1.520  -0.037   0.032   0.098
              0.003   0.002   0.006   0.008   0.005
  37  7.138   1.805   0.065   1.218   1.953   1.961   0.213  -0.050  -0.052
              0.005   0.007   0.003   0.002   0.008
  42  7.135   1.799   0.068   1.665   1.862   1.610   0.050  -0.019   0.077
              0.006   0.004   0.004   0.005   0.005
  43  7.136   1.808   0.062   1.961   1.651   1.520  -0.052   0.055   0.108
              0.004   0.004   0.006   0.007   0.003
  48  7.136   1.811   0.060   1.204   1.979   1.938   0.220  -0.058  -0.041
              0.004   0.008   0.003   0.001   0.008
  49  7.145   1.815   0.057   1.930   1.981   1.226  -0.042  -0.059   0.213
              0.004   0.001   0.003   0.008   0.008
  54  7.137   1.810   0.061   1.618   1.633   1.884   0.064   0.064  -0.022
              0.006   0.007   0.003   0.004   0.005
  55  7.149   1.814   0.060   1.756   1.422   1.983   0.016   0.133  -0.059
              0.004   0.007   0.005   0.004   0.003
  60  7.153   1.822   0.054   1.943   1.590   1.633  -0.047   0.078   0.057
              0.005   0.003   0.004   0.008   0.004
  61  7.138   1.806   0.064   1.710   1.668   1.758   0.036   0.057   0.017
              0.006   0.004   0.004   0.006   0.005
  66  7.138   1.808   0.063   1.803   1.975   1.348   0.008  -0.057   0.165
              0.005   0.002   0.003   0.007   0.006
  67  7.149   1.814   0.060   1.262   1.989   1.911   0.190  -0.063  -0.037
              0.005   0.007   0.003   0.002   0.006
  72  7.140   1.818   0.056   1.696   1.864   1.560   0.044  -0.019   0.095
              0.006   0.004   0.004   0.005   0.006
  73  7.143   1.810   0.061   1.964   1.548   1.629  -0.050   0.087   0.069
              0.003   0.005   0.006   0.008   0.002
  78  7.153   1.822   0.053   1.920   1.330   1.920  -0.044   0.165  -0.037
              0.001   0.006   0.008   0.007   0.002
  79  7.134   1.805   0.064   1.507   1.923   1.681   0.115  -0.037   0.051
              0.007   0.003   0.004   0.004   0.007
  84  7.131   1.800   0.069   1.940   1.647   1.518  -0.038   0.066   0.105
              0.005   0.003   0.004   0.008   0.005
  85  7.148   1.819   0.056   1.702   1.635   1.829   0.033   0.062  -0.010
              0.005   0.005   0.004   0.005   0.004
  90  7.136   1.804   0.065   1.233   1.954   1.945   0.209  -0.050  -0.049
              0.005   0.007   0.004   0.002   0.007
  91  7.129   1.800   0.066   1.829   1.927   1.353   0.000  -0.043   0.171
              0.005   0.002   0.004   0.007   0.007
[...]
              0.004   0.004   0.008   0.006   0.003
1231  7.144   1.822   0.056   1.358   1.943   1.829   0.157  -0.043  -0.002
              0.007   0.004   0.003   0.003   0.007
1236  7.146   1.809   0.061   1.267   1.905   1.979   0.194  -0.031  -0.062
              0.007   0.005   0.003   0.001   0.007
1237  7.133   1.803   0.065   1.937   1.289   1.901  -0.041   0.185  -0.030
              0.002   0.004   0.009   0.007   0.002
1242  7.127   1.790   0.074   1.925   1.284   1.907  -0.035   0.186  -0.028
              0.001   0.007   0.009   0.006   0.001
1243  7.145   1.802   0.066   1.665   1.935   1.565   0.049  -0.043   0.083
              0.007   0.003   0.003   0.003   0.007
1248  7.128   1.784   0.079   1.640   1.480   1.963   0.071   0.133  -0.045
              0.002   0.007   0.005   0.005   0.001
1249  7.130   1.792   0.075   1.344   1.825   1.924   0.174   0.003  -0.029
              0.005   0.006   0.003   0.003   0.005

Species: Ag
Atom  Qatom  Qorb
1251 10.838  -0.478   0.952   1.951   1.958   1.948   1.957   1.951   0.007
              0.010   0.010   0.008   0.008   0.213   0.132   0.211
1252 11.039   0.227   0.607   1.964   1.963   1.959   1.971   1.957   0.008
              0.011   0.009   0.005   0.002   0.160   0.094   0.104
1253 11.099   0.374   0.513   1.965   1.963   1.957   1.970   1.951   0.008
              0.011   0.010   0.008   0.007   0.177   0.086   0.099
1254 11.063   0.316   0.518   1.956   1.971   1.957   1.960   1.963   0.006
              0.011   0.012   0.009   0.009   0.109   0.104   0.160
1255 10.999   0.049   0.737   1.956   1.958   1.958   1.968   1.962   0.006
              0.008   0.009   0.010   0.006   0.127   0.106   0.138
1256 10.967   0.058   0.680   1.956   1.968   1.955   1.956   1.959   0.008
              0.011   0.012   0.013   0.008   0.108   0.100   0.174
1257 11.011   0.124   0.687   1.958   1.962   1.955   1.970   1.966   0.006
              0.007   0.009   0.008   0.005   0.117   0.097   0.140
1258 11.050   0.009   0.633   1.941   1.942   1.938   1.948   1.940   0.018
              0.023   0.020   0.019   0.018   0.180   0.199   0.221
1259 10.916  -0.026   0.729   1.967   1.974   1.960   1.957   1.972   0.003
              0.009   0.004   0.013   0.006   0.102   0.118   0.128
1260 10.936  -0.344   0.891   1.942   1.950   1.941   1.947   1.945   0.014
              0.018   0.017   0.018   0.015   0.205   0.196   0.180
1261 10.987  -0.228   0.828   1.942   1.953   1.941   1.948   1.946   0.014
              0.017   0.017   0.020   0.014   0.203   0.193   0.180
1262 10.972   0.152   0.643   1.970   1.965   1.954   1.972   1.963   0.006
              0.009   0.008   0.012   0.007   0.117   0.103   0.092
1263 11.025   0.280   0.553   1.967   1.959   1.951   1.969   1.964   0.010
              0.013   0.010   0.013   0.007   0.118   0.120   0.090
1264 10.998  -0.152   0.787   1.945   1.951   1.939   1.951   1.945   0.012
              0.017   0.017   0.016   0.017   0.211   0.186   0.157
1265 10.991  -0.218   0.855   1.940   1.949   1.935   1.943   1.944   0.016
              0.018   0.018   0.021   0.015   0.189   0.188   0.178
1266 10.920  -0.419   0.971   1.950   1.948   1.939   1.952   1.942   0.014
              0.019   0.016   0.016   0.012   0.167   0.190   0.203
1267 10.991   0.074   0.687   1.955   1.964   1.952   1.951   1.966   0.008
              0.015   0.014   0.016   0.010   0.105   0.159   0.113
1268 10.913   0.010   0.686   1.971   1.962   1.964   1.972   1.965   0.010
              0.013   0.007   0.011   0.004   0.116   0.122   0.099
1269 10.876  -0.059   0.686   1.969   1.958   1.960   1.966   1.963   0.009
              0.015   0.011   0.013   0.009   0.109   0.150   0.118
1270 10.921  -0.374   1.004   1.959   1.941   1.942   1.964   1.953   0.009
              0.012   0.009   0.009   0.010   0.198   0.173   0.111
1271 10.992  -0.138   0.805   1.964   1.944   1.939   1.962   1.952   0.010
              0.011   0.013   0.008   0.014   0.184   0.203   0.119
1272 10.950  -0.346   0.983   1.953   1.956   1.940   1.947   1.956   0.011
              0.011   0.010   0.011   0.011   0.130   0.183   0.193
1273 11.132   0.133   0.680   1.953   1.954   1.937   1.944   1.955   0.013
              0.012   0.013   0.015   0.013   0.143   0.196   0.173
1274 10.987  -0.146   0.832   1.951   1.962   1.942   1.949   1.960   0.014
              0.005   0.010   0.011   0.010   0.127   0.188   0.172
1275 11.001  -0.179   0.872   1.957   1.960   1.942   1.953   1.962   0.008
              0.010   0.009   0.008   0.011   0.146   0.195   0.149
1276 10.899  -0.469   0.943   1.963   1.963   1.950   1.961   1.963  -0.001
              0.001   0.000   0.001  -0.001   0.213   0.209   0.205
1277 10.889  -0.415   1.012   1.953   1.957   1.953   1.959   1.946   0.008
              0.014   0.011   0.008   0.009   0.166   0.114   0.194
1278 11.009   0.181   0.644   1.955   1.974   1.962   1.958   1.974   0.010
              0.005   0.009   0.009   0.007   0.113   0.094   0.113
1279 10.901  -0.394   0.991   1.948   1.957   1.952   1.960   1.949   0.010
              0.010   0.011   0.010   0.009   0.209   0.106   0.171
1280 10.900  -0.328   0.917   1.951   1.960   1.952   1.956   1.950   0.010
              0.009   0.011   0.014   0.009   0.190   0.109   0.190
1281 10.912  -0.036   0.713   1.972   1.967   1.967   1.973   1.961   0.008
              0.008   0.008   0.007   0.011   0.114   0.118   0.122
1282 11.082   0.351   0.562   1.969   1.966   1.961   1.975   1.965   0.006
              0.009   0.009   0.005   0.005   0.110   0.079   0.111

mulliken: Qtot =     5346.000

siesta: Program's energy decomposition (eV):
siesta: Ebs     =    -85228.269353
siesta: Eions   =    528240.073050
siesta: Ena     =     62913.784478
siesta: Ekin    =    267456.359060
siesta: Enl     =    -92677.271486
siesta: DEna    =     -3775.081233
siesta: DUscf   =       460.339498
siesta: DUext   =         0.000000
siesta: Exc     =    -81424.135337
siesta: eta*DQ  =         0.000000
siesta: Emadel  =         0.000000
siesta: Emeta   =         0.000000
siesta: Emolmec =         0.000000
siesta: Ekinion =         0.000000
siesta: Eharris =   -375286.088863
siesta: Etot    =   -375286.078070
siesta: FreeEng =   -375286.161133

siesta: Final energy (eV):
siesta:  Band Struct. =  -85228.269353
siesta:       Kinetic =  267456.359060
siesta:       Hartree =  176679.419908
siesta:    Ext. field =       0.000000
siesta:   Exch.-corr. =  -81424.135337
siesta:  Ion-electron = -600283.693063
siesta:       Ion-ion = -137714.028638
siesta:       Ekinion =       0.000000
siesta:         Total = -375286.078070

siesta: Atomic forces (eV/Ang):
siesta:      1   -0.827116    0.121646   -0.536669
siesta:      2   -0.361257    0.007583    0.329568
siesta:      3    0.213013    1.040741    0.345190
siesta:      4    0.655658   -0.398340   -0.184235
siesta:      5    0.540939    1.500066    1.089336
siesta:      6    1.476075   -0.376913   -1.852471
siesta:      7   -1.450291   -1.676727    0.240315
siesta:      8    0.781162    0.223881    0.684995
siesta:      9   -0.697697   -0.311763   -0.374116
siesta:     10   -0.307657    0.407071    0.500467
siesta:     11    0.756527   -0.257256    0.763885
siesta:     12    0.408528   -1.142885   -1.641840
siesta:     13   -1.509751    1.209187   -0.133505
siesta:     14    0.606205   -0.979668    0.207932
siesta:     15   -0.239366    0.806683    0.252820
siesta:     16    0.483400    0.042702    0.444490
siesta:     17    0.778912   -0.827845    0.282380
siesta:     18   -1.263691    0.683541   -1.283579
siesta:     19    0.618110    1.000782    0.864313
siesta:     20   -0.011279   -0.331983    0.628425
siesta:     21   -0.217556   -0.862890    0.132569
siesta:     22   -0.078780   -0.152694   -0.412844
siesta:     23   -0.883498    0.622203    1.212916
siesta:     24    0.438350   -1.363449   -0.851458
siesta:     25    0.464324    1.349598   -0.410534
siesta:     26    0.087750   -0.471285    0.211859
siesta:     27    0.734962    0.392527   -0.177486
siesta:     28   -0.189593    0.644505    0.429824
siesta:     29    0.660236    0.618437   -0.472319
siesta:     30   -0.100849    0.561173    1.513098
siesta:     31   -0.966301   -1.128806   -0.436742
siesta:     32   -0.501946   -0.004881    0.474173
siesta:     33   -0.471605   -0.702549    0.164539
siesta:     34    0.439927   -0.240988   -1.267925
siesta:     35   -0.333336   -0.780396    0.316511
siesta:     36    0.955195   -0.386244   -0.877310
siesta:     37    0.164829    1.719505    0.622255
siesta:     38    0.211607    0.380261    0.111399
siesta:     39    0.106389    0.242237    0.104416
siesta:     40   -0.778624    0.175771    0.648139
siesta:     41   -0.293583    1.116203    0.216703
siesta:     42   -1.484309   -1.417436   -0.487800
siesta:     43    1.398086   -0.224148   -0.707412
siesta:     44    0.056157    0.328207    0.854934
siesta:     45   -0.101598   -0.434402   -0.047073
siesta:     46    0.818748    0.106036   -0.003261
siesta:     47    0.707084   -0.391000   -0.859861
siesta:     48    0.412929    1.757729    0.109381
siesta:     49   -1.669687   -0.717596    0.186246
siesta:     50    0.393864   -1.014106   -0.348488
siesta:     51   -0.484649    0.335014    0.312986
siesta:     52   -0.276741   -0.549422   -0.060877
siesta:     53   -0.102385   -0.750884    0.135378
siesta:     54    0.826848    0.907456   -1.285147
siesta:     55   -0.225502    0.510181    1.359125
siesta:     56    0.354589   -0.069945    0.670546
siesta:     57    0.302667   -0.378568   -0.924868
siesta:     58    0.139761    0.304737    0.103985
siesta:     59    0.393339    0.869876    0.367184
siesta:     60   -0.874813    0.388623    1.235702
[...]
siesta:   1268    0.570001    0.853174   -0.374233
siesta:   1269   -1.020663    0.197786    0.466461
siesta:   1270   -0.000404    0.033206    0.280091
siesta:   1271    0.037614    0.238837    0.128691
siesta:   1272   -0.069858    0.089715   -0.021676
siesta:   1273    0.103743   -0.302514   -0.079383
siesta:   1274    0.145789   -0.145049    0.303595
siesta:   1275    0.329826   -0.082322    0.211378
siesta:   1276   -0.080404    0.063271    0.001316
siesta:   1277    0.004138    0.177646   -0.129135
siesta:   1278    0.290915    0.461228   -0.532813
siesta:   1279    0.103188    0.004874   -0.029572
siesta:   1280   -0.149032   -0.025404   -0.332345
siesta:   1281   -0.403181   -0.748954   -0.636918
siesta:   1282    0.206633   -0.175563   -0.349078
siesta: ----------------------------------------
siesta:    Tot   -0.024174   -0.068325   -0.047904

siesta: Stress tensor (static) (eV/Ang**3):
siesta:    -0.039866   -0.001437    0.004924
siesta:    -0.001437   -0.032812   -0.000257
siesta:     0.004924   -0.000257   -0.041651

siesta: Cell volume =      13041.289483 Ang**3

siesta: Pressure (static):
siesta:                Solid            Molecule  Units
siesta:           0.00041506          0.00038640  Ry/Bohr**3
siesta:           0.03810959          0.03547764  eV/Ang**3
siesta:          61.05895242         56.84205619  kBar
(Free)E+ p_basis*V_orbitals  =     -374501.449514
(Free)Eharris+ p_basis*V_orbitals  =     -374501.469708

Optical: Performing optical calculation:

Optical: Polarization type       = polarized
Optical: Minimum of energy range =   0.0001 Ry
Optical: Maximum of energy range =   7.3498 Ry
Optical: Gaussian broadening     =   0.0037 Ry
Optical: Scissor operator        =   0.0000 Ry
Optical: Number of bands         =    13386
Optical: Number of electrons     =     5346
Optical: BZ mesh dimensions      =    1   1   1

Optical: electric field direction
Optical:      0.00000     0.00000     1.00000

Optical: Checking f-sum rule  0.885438
Optical: For insulators and closed shell systems
Optical: this number should be close to 1 if an enough
Optical: number of unoccupied bands have been included

elaps:  Routine       Calls   Time/call    Tot.time        %
elaps:  siesta            1   85563.977   85563.977   100.00
elaps:  Setup             1       1.927       1.927     0.00
elaps:  bands             1       0.000       0.000     0.00
elaps:  writewave         1       0.001       0.001     0.00
elaps:  KSV_init          1       0.000       0.000     0.00
elaps:  IterMD            1    6012.130    6012.130     7.03
elaps:  hsparse           1       1.567       1.567     0.00
elaps:  overlap           1       1.938       1.938     0.00
elaps:  IterSCF          23     254.331    5849.607     6.84
elaps:  kinefsm           2       1.105       2.209     0.00
elaps:  nlefsm            2       9.965      19.930     0.02
elaps:  DHSCF            24      98.995    2375.875     2.78
elaps:  DHSCF1            1       1.164       1.164     0.00
elaps:  DHSCF2            1      70.649      70.649     0.08
elaps:  REORD           146       0.002       0.232     0.00
elaps:  POISON           25       0.646      16.159     0.02
elaps:  DHSCF3           24      94.215    2261.169     2.64
elaps:  rhoofd           24      38.900     933.611     1.09
elaps:  cellXC           24       1.338      32.122     0.04
elaps:  vmat             24      45.677    1096.254     1.28
elaps:  MolMec            2       0.003       0.005     0.00
elaps:  diagon           23     153.794    3537.261     4.13
elaps:  r-eigvec         23     134.141    3085.247     3.61
elaps:  r-buildHS        23       0.025       0.585     0.00
elaps:  rdiag            24     134.693    3232.623     3.78
elaps:  rdiag1           24       4.163      99.923     0.12
elaps:  rdiag2           24      26.788     642.906     0.75
elaps:  rdiag3           24      93.228    2237.472     2.61
elaps:  rdiag4           24       9.681     232.349     0.27
elaps:  r-buildD         23      19.642     451.765     0.53
elaps:  DHSCF4            1      42.773      42.773     0.05
elaps:  dfscf             1      39.645      39.645     0.05
elaps:  overfsm           1       0.289       0.289     0.00
elaps:  optical           1   79548.759   79548.759    92.97
elaps:  phirphiopt        1      33.712      33.712     0.04
elaps:  transrate         1   79360.187   79360.187    92.75

>> End of run:  10-SEP-2014  12:16:22