>> Start of run:  11-SEP-2014   1:00:09

reinit: Reading from standard input
************************** Dump of input data file ****************************
SystemName      optical
SystemLabel     optical
NumberOfAtoms   1282
NumberOfSpecies 4
MD.TypeOfRun    CG
MD.NumCGsteps   0
MD.ConstantVolume  .true.
SolutionMethod  diagon
XC.functional   GGA
XC.authors      PBE
PAO.BasisSize   DZP
DM.NumberPulay  7
DM.MixingWeight 0.1
DirectPhi       .true.
MeshCutoff      500 Ry
MaxSCFiterations 200
UseSaveData     .true.
WriteMullikenPop 1
OpticalCalculation      .true.
%block Optical.Mesh
 1 1 1
%endblock Optical.Mesh
Optical.PolarizationType  polarized
%block Optical.Vector
 0.0 0.0 1.0
%endblock Optical.Vector
Optical.Broaden         0.05 eV
Optical.EnergyMinimum   0.001 eV
Optical.EnergyMaximum   100.0 eV
%block ChemicalSpeciesLabel
 1   1   H
 2   6   C
 3   9   F
 4  47   Ag
%endblock ChemicalSpeciesLabel
LatticeConstant 1.0 Ang
%block LatticeParameters
  22.534   24.472   23.649   90.0 90.0 90.0
%endblock LatticeParameters
AtomicCoordinatesFormat Ang
%block AtomicCoordinatesAndAtomicSpecies < struct.coor
%endblock AtomicCoordinatesAndAtomicSpecies
************************** End of input data file *****************************

reinit: -----------------------------------------------------------------------
reinit: System Name: optical
reinit: -----------------------------------------------------------------------
reinit: System Label: optical
reinit: -----------------------------------------------------------------------

initatom: Reading input for the pseudopotentials and atomic orbitals ----------
 Species number:            1  Label: H Atomic number:           1
 Species number:            2  Label: C Atomic number:           6
 Species number:            3  Label: F Atomic number:           9
 Species number:            4  Label: Ag Atomic number:          47
Ground state valence configuration:   1s01
Reading pseudopotential information in formatted form from H.psf

Valence configuration for pseudopotential generation:
1s( 1.00) rc: 1.33
2p( 0.00) rc: 1.33
3d( 0.00) rc: 0.37
4f( 0.00) rc: 1.33
Ground state valence configuration:   2s02  2p02
Reading pseudopotential information in formatted form from C.psf

Valence configuration for pseudopotential generation:
2s( 2.00) rc: 1.56
2p( 2.00) rc: 1.56
3d( 0.00) rc: 1.56
4f( 0.00) rc: 1.56
Ground state valence configuration:   2s02  2p05
Reading pseudopotential information in formatted form from F.psf

Valence configuration for pseudopotential generation:
2s( 2.00) rc: 1.41
2p( 5.00) rc: 1.41
3d( 0.00) rc: 1.41
4f( 0.00) rc: 1.41
Ground state valence configuration:   5s01  4d10
Reading pseudopotential information in formatted form from Ag.psf

Valence configuration for pseudopotential generation:
5s( 1.00) rc: 2.52
5p( 0.00) rc: 2.72
4d(10.00) rc: 2.52
4f( 0.00) rc: 2.52
For H, standard SIESTA heuristics set lmxkb to 2
 (one more than the basis l, including polarization orbitals).
Use PS.lmax or PS.KBprojectors blocks to override.
For C, standard SIESTA heuristics set lmxkb to 3
 (one more than the basis l, including polarization orbitals).
Use PS.lmax or PS.KBprojectors blocks to override.
For F, standard SIESTA heuristics set lmxkb to 3
 (one more than the basis l, including polarization orbitals).
Use PS.lmax or PS.KBprojectors blocks to override.
For Ag, standard SIESTA heuristics set lmxkb to 3
 (one more than the basis l, including polarization orbitals).
Use PS.lmax or PS.KBprojectors blocks to override.

<basis_specs>
H                    Z=   1    Mass=  1.0100        Charge= 0.17977+309
Lmxo=0 Lmxkb= 2    BasisType=split      Semic=F
L=0  Nsemic=0  Cnfigmx=1
          n=1  nzeta=2  polorb=1
            splnorm:   0.15000
               vcte:    0.0000
               rinn:    0.0000
                rcs:    0.0000      0.0000
            lambdas:   1.00000     1.00000
L=0  Nkbl=1  erefs: 0.17977+309
L=1  Nkbl=1  erefs: 0.17977+309
L=2  Nkbl=1  erefs: 0.17977+309
</basis_specs>

atom: Called for H                     (Z =   1)

read_vps: Pseudopotential generation method:
read_vps: ATM 3.2.2 Troullier-Martins
Total valence charge:    1.00000

xc_check: Exchange-correlation functional:
xc_check: GGA Perdew, Burke & Ernzerhof 1996
V l=0 = -2*Zval/r beyond r=  1.2656
V l=1 = -2*Zval/r beyond r=  1.2498
V l=2 = -2*Zval/r beyond r=  0.3563
All V_l potentials equal beyond r=  1.2656
This should be close to max(r_c) in ps generation
All pots = -2*Zval/r beyond r=  1.2656

VLOCAL1: 99.0% of the norm of Vloc inside     27.100 Ry
VLOCAL1: 99.9% of the norm of Vloc inside     61.762 Ry
atom: Maximum radius for 4*pi*r*r*local-pseudopot. charge    1.48935
atom: Maximum radius for r*vlocal+2*Zval:    1.24984
GHOST: No ghost state for L =  0
GHOST: No ghost state for L =  1
GHOST: No ghost state for L =  2

KBgen: Kleinman-Bylander projectors:
   l= 0   rc=  1.398961   el= -0.477209   Ekb= -2.001853   kbcos= -0.352188
   l= 1   rc=  1.470814   el=  0.001006   Ekb= -0.423408   kbcos= -0.024395
   l= 2   rc=  1.489346   el=  0.001895   Ekb= -0.481957   kbcos= -0.001574

KBgen: Total number of  Kleinman-Bylander projectors:    9
atom: -------------------------------------------------------------------------

atom: SANKEY-TYPE ORBITALS:
atom: Selected multiple-zeta basis: split

SPLIT: Orbitals with angular momentum L= 0

SPLIT: Basis orbitals for state 1s

SPLIT: PAO cut-off radius determined from an
SPLIT: energy shift=  0.020000 Ry

   izeta = 1
                 lambda =    1.000000
                     rc =    4.708991
                 energy =   -0.457764
                kinetic =    0.979534
    potential(screened) =   -1.437298
       potential(ionic) =   -1.965615

   izeta = 2
                 rmatch =    3.759707
              splitnorm =    0.150000
                 energy =   -0.339003
                kinetic =    1.582546
    potential(screened) =   -1.921548
       potential(ionic) =   -2.471878

POLgen: Perturbative polarization orbital with L=  1

POLgen: Polarization orbital for state 1s

   izeta = 1
                     rc =    4.708991
                 energy =    0.764951
                kinetic =    1.476882
    potential(screened) =   -0.711931
       potential(ionic) =   -1.204335
atom: Total number of Sankey-type orbitals:  5

atm_pop: Valence configuration (for local Pseudopot. screening):
 1s( 1.00)
Vna: chval, zval:    1.00000   1.00000

Vna:  Cut-off radius for the neutral-atom potential:   4.708991

atom: _________________________________________________________________________

<basis_specs>
C                    Z=   6    Mass=  12.010        Charge= 0.17977+309
Lmxo=1 Lmxkb= 3    BasisType=split      Semic=F
L=0  Nsemic=0  Cnfigmx=2
          n=1  nzeta=2  polorb=0
            splnorm:   0.15000
               vcte:    0.0000
               rinn:    0.0000
                rcs:    0.0000      0.0000
            lambdas:   1.00000     1.00000
L=1  Nsemic=0  Cnfigmx=2
          n=1  nzeta=2  polorb=1
            splnorm:   0.15000
               vcte:    0.0000
               rinn:    0.0000
                rcs:    0.0000      0.0000
            lambdas:   1.00000     1.00000
L=0  Nkbl=1  erefs: 0.17977+309
L=1  Nkbl=1  erefs: 0.17977+309
L=2  Nkbl=1  erefs: 0.17977+309
L=3  Nkbl=1  erefs: 0.17977+309
</basis_specs>

[...]

SPLIT: Basis orbitals for state 2p

[...]

POLgen: Polarization orbital for state 2p

[...]

atm_pop: Valence configuration (for local Pseudopot. screening):
 2s( 2.00)
 2p( 2.00)
Vna: chval, zval:    4.00000   4.00000

[...]

SPLIT: Basis orbitals for state 2p

[...]

POLgen: Polarization orbital for state 2p

[...]

atm_pop: Valence configuration (for local Pseudopot. screening):
 2s( 2.00)
 2p( 5.00)
Vna: chval, zval:    7.00000   7.00000

[...]

<basis_specs>
Ag                   Z=  47    Mass=  107.87        Charge= 0.17977+309
Lmxo=2 Lmxkb= 3    BasisType=split      Semic=F
L=0  Nsemic=0  Cnfigmx=5
          n=1  nzeta=2  polorb=1
            splnorm:   0.15000
               vcte:    0.0000
               rinn:    0.0000
                rcs:    0.0000      0.0000
            lambdas:   1.00000     1.00000
L=1  Nsemic=0  Cnfigmx=5
L=2  Nsemic=0  Cnfigmx=4
          n=1  nzeta=2  polorb=0
            splnorm:   0.15000
               vcte:    0.0000
               rinn:    0.0000
                rcs:    0.0000      0.0000
            lambdas:   1.00000     1.00000
L=0  Nkbl=1  erefs: 0.17977+309
L=1  Nkbl=1  erefs: 0.17977+309
L=2  Nkbl=1  erefs: 0.17977+309
L=3  Nkbl=1  erefs: 0.17977+309
</basis_specs>

atom: Called for Ag                    (Z =  47)

read_vps: Pseudopotential generation method:
read_vps: ATM 3.2.2 Troullier-Martins
Total valence charge:   11.00000

xc_check: Exchange-correlation functional:
xc_check: GGA Perdew, Burke & Ernzerhof 1996
V l=0 = -2*Zval/r beyond r=  2.4592
V l=1 = -2*Zval/r beyond r=  2.6507
V l=2 = -2*Zval/r beyond r=  2.4592
V l=3 = -2*Zval/r beyond r=  2.4592
All V_l potentials equal beyond r=  2.6507
This should be close to max(r_c) in ps generation
All pots = -2*Zval/r beyond r=  2.6507

VLOCAL1: 99.0% of the norm of Vloc inside      6.178 Ry
VLOCAL1: 99.9% of the norm of Vloc inside     14.079 Ry
atom: Maximum radius for 4*pi*r*r*local-pseudopot. charge    3.19739
atom: Maximum radius for r*vlocal+2*Zval:    2.82168
GHOST: No ghost state for L =  0
GHOST: No ghost state for L =  1
GHOST: No ghost state for L =  2
GHOST: No ghost state for L =  3

KBgen: Kleinman-Bylander projectors:
   l= 0   rc=  2.966357   el= -0.323666   Ekb=  3.565490   kbcos=  0.247453
   l= 1   rc=  3.003670   el= -0.054265   Ekb=  1.619308   kbcos=  0.223076
   l= 2   rc=  2.786631   el= -0.547066   Ekb= -7.840816   kbcos= -0.714112
   l= 3   rc=  3.079709   el=  0.002953   Ekb= -2.732950   kbcos= -0.012571

KBgen: Total number of  Kleinman-Bylander projectors:   16
atom: -------------------------------------------------------------------------

atom: SANKEY-TYPE ORBITALS:
atom: Selected multiple-zeta basis: split

[...]

SPLIT: Basis orbitals for state 5s

[...]

SPLIT: Orbitals with angular momentum L= 2

SPLIT: Basis orbitals for state 4d

SPLIT: PAO cut-off radius determined from an
SPLIT: energy shift=  0.020000 Ry

   izeta = 1
                 lambda =    1.000000
                     rc =    3.954440
                 energy =   -0.527442
                kinetic =    6.210364
    potential(screened) =   -6.737807
       potential(ionic) =  -18.733043

   izeta = 2
                 rmatch =    2.490121
              splitnorm =    0.150000
                 energy =   -0.148928
                kinetic =    8.576261
    potential(screened) =   -8.725189
       potential(ionic) =  -21.658221

POLgen: Perturbative polarization orbital with L=  1

POLgen: Polarization orbital for state 5s

   izeta = 1
                     rc =    6.684855
                 energy =   -0.001728
                kinetic =    0.597115
    potential(screened) =   -0.598843
       potential(ionic) =   -7.554613
atom: Total number of Sankey-type orbitals: 15

atm_pop: Valence configuration (for local Pseudopot. screening):
 5s( 1.00)
 5p( 0.00)
 4d(10.00)
Vna: chval, zval:   11.00000  11.00000

[...]
  36  6.937   1.450   0.288   1.825   1.798   1.458  -0.004   0.003   0.101
              0.004   0.002   0.004   0.005   0.004
  37  6.918   1.462   0.283   1.449   1.876   1.657   0.113  -0.003   0.061
              0.006   0.004   0.003   0.002   0.005
  42  6.922   1.472   0.277   1.265   1.862   1.857   0.170  -0.003   0.005
              0.006   0.004   0.002   0.001   0.006
  43  6.934   1.457   0.285   1.787   1.374   1.903   0.022   0.106  -0.020
              0.001   0.005   0.007   0.005   0.001
  48  6.951   1.464   0.280   1.622   1.671   1.812   0.044   0.042  -0.003
              0.004   0.005   0.003   0.003   0.005
  49  6.950   1.472   0.275   1.877   1.408   1.786  -0.019   0.123   0.006
              0.002   0.004   0.006   0.006   0.002
  54  6.930   1.452   0.287   1.803   1.492   1.737   0.005   0.097   0.037
              0.002   0.004   0.006   0.006   0.003
  55  6.947   1.464   0.279   1.330   1.881   1.878   0.123  -0.017  -0.011
              0.005   0.005   0.003   0.001   0.006
  60  6.956   1.459   0.282   1.447   1.834   1.850   0.091  -0.009  -0.018
              0.005   0.005   0.003   0.002   0.005
  61  6.917   1.449   0.290   1.656   1.538   1.807   0.050   0.103   0.002
              0.003   0.005   0.005   0.004   0.003
  66  6.936   1.467   0.278   1.753   1.819   1.471   0.023   0.009   0.097
              0.006   0.002   0.002   0.004   0.006
  67  6.922   1.448   0.290   1.850   1.408   1.755   0.002   0.115   0.033
              0.001   0.006   0.007   0.006   0.001
  72  6.914   1.454   0.288   1.540   1.783   1.682   0.073   0.026   0.049
              0.006   0.004   0.002   0.002   0.004
  73  6.919   1.460   0.282   1.724   1.530   1.739   0.040   0.101   0.023
              0.004   0.005   0.005   0.004   0.002
  78  6.937   1.470   0.275   1.757   1.392   1.897   0.019   0.126  -0.019
              0.002   0.006   0.006   0.005   0.001
  79  6.939   1.458   0.283   1.508   1.669   1.908   0.081   0.039  -0.025
              0.004   0.006   0.003   0.002   0.004
  84  6.952   1.465   0.278   1.796   1.516   1.811   0.005   0.061   0.000
              0.002   0.004   0.006   0.005   0.002
  85  6.940   1.470   0.275   1.330   1.844   1.893   0.131  -0.007  -0.015
              0.005   0.005   0.002   0.001   0.006
  90  6.934   1.456   0.284   1.758   1.881   1.423   0.020  -0.014   0.106
              0.005   0.002   0.003   0.005   0.005
  91  6.944   1.468   0.276   1.387   1.827   1.861   0.119  -0.001  -0.013
              0.004   0.006   0.004   0.001   0.005
[...]
              0.003   0.004   0.006   0.006   0.002
1231  6.953   1.457   0.282   1.629   1.829   1.664   0.043  -0.004   0.035
              0.006   0.003   0.003   0.003   0.005
1236  6.924   1.452   0.287   1.836   1.851   1.327   0.009  -0.001   0.143
              0.005   0.001   0.003   0.006   0.006
1237  6.950   1.469   0.276   1.402   1.888   1.807   0.098  -0.017   0.007
              0.005   0.005   0.003   0.001   0.006
1242  6.933   1.456   0.284   1.773   1.526   1.749   0.012   0.100   0.015
              0.003   0.004   0.003   0.005   0.003
1243  6.951   1.451   0.288   1.800   1.496   1.825  -0.003   0.083  -0.009
              0.002   0.005   0.004   0.005   0.003
1248  6.928   1.474   0.275   1.826   1.784   1.399   0.011   0.024   0.116
              0.006   0.001   0.002   0.004   0.006
1249  6.925   1.463   0.280   1.893   1.263   1.852  -0.012   0.165   0.001
              0.000   0.006   0.009   0.004   0.000

Species: Ag
Atom  Qatom  Qorb
1251 11.061   0.295   0.488   1.857   1.902   1.883   1.899   1.866   0.038
              0.023   0.031   0.022   0.038   0.259   0.200   0.262
1252 11.068   0.587   0.373   1.922   1.928   1.929   1.963   1.897   0.006
              0.004   0.001  -0.011   0.008   0.195   0.132   0.133
1253 11.026   0.453   0.466   1.922   1.923   1.902   1.907   1.891   0.008
              0.008   0.014   0.022   0.017   0.203   0.147   0.143
1254 10.974   0.423   0.404   1.894   1.941   1.902   1.895   1.924   0.018
              0.008   0.017   0.027   0.009   0.142   0.158   0.213
1255 11.007   0.494   0.413   1.899   1.916   1.889   1.915   1.872   0.017
              0.013   0.020   0.015   0.034   0.202   0.138   0.169
1256 11.016   0.452   0.441   1.908   1.973   1.896   1.878   1.929   0.009
             -0.010   0.016   0.032   0.003   0.154   0.141   0.195
1257 11.032   0.429   0.417   1.908   1.934   1.922   1.971   1.916   0.011
              0.001   0.000  -0.015   0.011   0.200   0.142   0.183
1258 11.064   0.453   0.348   1.891   1.914   1.920   1.907   1.885   0.018
              0.015   0.016   0.014   0.027   0.197   0.204   0.255
1259 11.028   0.606   0.321   1.894   1.949   1.930   1.928   1.961   0.013
              0.000  -0.003  -0.001  -0.009   0.197   0.117   0.124
1260 11.006   0.313   0.485   1.880   1.902   1.891   1.906   1.898   0.025
              0.019   0.030   0.022   0.019   0.231   0.186   0.199
1261 10.998   0.286   0.470   1.877   1.912   1.910   1.907   1.889   0.023
              0.015   0.026   0.019   0.023   0.227   0.203   0.212
1262 11.047   0.626   0.408   1.930   1.910   1.932   1.935   1.932   0.003
              0.010  -0.008   0.003  -0.001   0.130   0.127   0.109
1263 11.100   0.701   0.358   1.966   1.935   1.914   1.955   1.940  -0.017
             -0.006  -0.003  -0.010  -0.008   0.128   0.115   0.132
1264 11.087   0.519   0.389   1.880   1.916   1.910   1.917   1.893   0.021
              0.011   0.014   0.012   0.018   0.208   0.175   0.206
1265 11.051   0.386   0.486   1.879   1.901   1.880   1.913   1.895   0.024
              0.020   0.031   0.015   0.017   0.216   0.177   0.211
1266 11.006   0.263   0.548   1.892   1.890   1.906   1.904   1.872   0.022
              0.025   0.021   0.018   0.030   0.187   0.194   0.234
1267 11.007   0.528   0.341   1.902   1.970   1.939   1.926   1.961   0.006
             -0.012  -0.004  -0.000  -0.011   0.180   0.149   0.131
1268 10.933   0.367   0.474   1.929   1.915   1.901   1.934   1.912   0.007
              0.011   0.017   0.010   0.014   0.136   0.142   0.163
1269 10.988   0.523   0.372   1.935   1.942   1.940   1.966   1.931   0.001
             -0.009  -0.003  -0.014  -0.002   0.127   0.128   0.151
1270 11.111   0.556   0.374   1.925   1.873   1.880   1.926   1.902   0.007
              0.026   0.020   0.010   0.015   0.220   0.215   0.163
1271 11.058   0.360   0.493   1.905   1.873   1.879   1.924   1.901   0.022
              0.028   0.022   0.013   0.015   0.235   0.223   0.165
1272 11.055   0.428   0.421   1.906   1.902   1.873   1.888   1.900   0.021
              0.020   0.024   0.023   0.019   0.204   0.223   0.202
1273 11.044   0.378   0.509   1.884   1.908   1.878   1.880   1.915   0.026
              0.015   0.024   0.027   0.013   0.151   0.223   0.214
1274 11.042   0.329   0.487   1.906   1.903   1.874   1.889   1.906   0.022
              0.020   0.024   0.022   0.015   0.203   0.221   0.220
1275 11.054   0.381   0.491   1.904   1.908   1.883   1.876   1.912   0.015
              0.019   0.021   0.028   0.017   0.157   0.224   0.219
1276 11.070   0.159   0.584   1.883   1.887   1.873   1.889   1.879   0.032
              0.030   0.032   0.029   0.031   0.256   0.252   0.253
1277 11.114   0.575   0.353   1.895   1.918   1.907   1.910   1.867   0.017
              0.012   0.018   0.013   0.025   0.195   0.185   0.223
1278 10.963   0.457   0.381   1.909   1.973   1.938   1.926   1.972   0.009
             -0.013  -0.008  -0.000  -0.014   0.138   0.141   0.153
1279 11.069   0.498   0.407   1.876   1.903   1.858   1.907   1.888   0.026
              0.019   0.039   0.019   0.022   0.213   0.190   0.203
1280 11.046   0.348   0.516   1.880   1.894   1.882   1.905   1.886   0.024
              0.023   0.031   0.018   0.022   0.218   0.190   0.209
1281 10.946   0.489   0.371   1.959   1.936   1.945   1.928   1.930  -0.013
             -0.001  -0.006   0.005  -0.001   0.137   0.137   0.129
1282 10.976   0.552   0.347   1.962   1.920   1.940   1.969   1.938  -0.012
              0.002  -0.007  -0.014  -0.004   0.126   0.133   0.124

mulliken: Qtot =     5346.000

siesta: Program's energy decomposition (eV):
siesta: Ebs     =    -75954.313170
siesta: Eions   =    528240.072706
siesta: Ena     =     58056.831063
siesta: Ekin    =    270078.266983
siesta: Enl     =    -93480.818850
siesta: DEna    =       232.534847
siesta: DUscf   =       347.530380
siesta: DUext   =         0.000000
siesta: Exc     =    -81898.099000
siesta: eta*DQ  =         0.000000
siesta: Emadel  =         0.000000
siesta: Emeta   =         0.000000
siesta: Emolmec =         0.000000
siesta: Ekinion =         0.000000
siesta: Eharris =   -374903.785150
siesta: Etot    =   -374903.827284
siesta: FreeEng =   -374903.835450

siesta: Final energy (eV):
siesta:  Band Struct. =  -75954.313170
siesta:       Kinetic =  270078.266983
siesta:       Hartree =  178223.403255
siesta:    Ext. field =       0.000000
siesta:   Exch.-corr. =  -81898.099000
siesta:  Ion-electron = -596102.014403
siesta:       Ion-ion = -145205.384119
siesta:       Ekinion =       0.000000
siesta:         Total = -374903.827284

siesta: Atomic forces (eV/Ang):
siesta:      1   -0.258889    0.520287   -0.049784
siesta:      2    0.236291    0.345830   -0.121498
siesta:      3    0.002420   -0.568342   -0.033449
siesta:      4    0.190366    0.417947    0.571271
siesta:      5   -0.270145    0.699293    0.800152
siesta:      6    0.659897   -0.226562   -2.526265
siesta:      7   -1.257966   -1.106433    0.293161
siesta:      8    0.352865   -0.455826   -0.306242
siesta:      9   -0.544099    0.133315    0.802093
siesta:     10    0.615569    0.833926   -0.103267
siesta:     11    0.289692   -0.900438    0.044180
siesta:     12   -0.429449   -1.165849    0.290941
siesta:     13   -0.186424    1.287835    0.224769
siesta:     14    0.957304   -0.775583    0.338233
siesta:     15   -0.671537    0.371721   -0.173892
siesta:     16    0.588975    0.162444   -0.578640
siesta:     17   -0.462814   -0.296585   -0.055571
siesta:     18   -0.879380   -0.307678    0.524180
siesta:     19    0.508648    0.459097   -1.350090
siesta:     20    0.635395    0.388668   -0.026103
siesta:     21    0.773749    0.240336    0.072495
siesta:     22   -0.271828   -0.375493    1.062206
siesta:     23   -0.330878    0.360223    0.029906
siesta:     24    0.288097   -1.156900    0.814405
siesta:     25   -0.831214    0.556279   -0.897813
siesta:     26    0.176862    0.716796    0.118048
siesta:     27   -0.529598   -0.413150   -0.324889
siesta:     28    0.097693    0.846926   -0.480543
siesta:     29    0.432034    0.398574    0.724943
siesta:     30    0.238940   -0.212324    1.803951
siesta:     31   -0.170366   -0.978231   -1.204882
siesta:     32   -0.162652   -0.004300    0.301119
siesta:     33    0.376243   -0.691221    0.103346
siesta:     34    0.009602    0.674302   -0.770785
siesta:     35    0.259695   -0.510400    0.681251
siesta:     36    0.966057   -0.023946   -0.810260
siesta:     37   -1.013507    1.278328    0.228282
siesta:     38   -0.152644   -0.637878   -0.109046
siesta:     39   -0.383292   -0.111412    0.460474
siesta:     40    0.179270   -0.513995    0.031808
siesta:     41    0.169583   -0.512559   -0.960732
siesta:     42   -0.085130    1.195002    0.047059
siesta:     43   -0.325095   -0.550791    0.622634
siesta:     44    0.398957   -0.810335   -0.136370
siesta:     45    0.405786    0.952273   -0.736281
siesta:     46    0.114627    0.426468    0.631540
siesta:     47   -0.314877    0.804291   -0.224618
siesta:     48   -0.138055   -0.932347    0.876628
siesta:     49   -0.747892   -0.185614   -1.335826
siesta:     50    0.250434    0.680153    0.213549
siesta:     51    0.500887    0.096182    0.663263
siesta:     52    0.085564   -0.963467    0.103473
siesta:     53   -0.317328   -0.453528   -0.120530
siesta:     54   -0.865870   -0.783903   -1.377457
siesta:     55   -0.339213    1.597818    0.089401
siesta:     56    0.755989   -0.740484    0.755745
siesta:     57    0.515975    0.545546    0.338446
siesta:     58    0.431608   -0.341077    0.230285
siesta:     59   -0.189366   -0.776356    0.420302
siesta:     60   -0.503941   -1.410324   -0.009664
[...]
siesta:   1268    0.776641    0.744337    0.630264
siesta:   1269   -1.122443    0.902516    0.613998
siesta:   1270   -0.248854    0.016679   -0.029000
siesta:   1271    0.620658   -0.075774   -0.108485
siesta:   1272   -0.261038    0.014025   -0.024336
siesta:   1273   -0.189965    0.460866    0.010157
siesta:   1274    0.412816   -0.241986    0.186811
siesta:   1275    0.258360    0.442325    0.034289
siesta:   1276    0.000973    0.092046   -0.074396
siesta:   1277   -0.051561   -0.067899   -0.267372
siesta:   1278    0.167581    0.914702   -0.496500
siesta:   1279   -0.082305    0.143465   -0.309388
siesta:   1280    0.129162    0.043110   -0.331375
siesta:   1281   -0.779608   -0.487061   -0.556786
siesta:   1282    0.924298   -0.315041   -0.455831
siesta: ----------------------------------------
siesta:    Tot    0.061403   -0.115676   -0.173772

siesta: Stress tensor (static) (eV/Ang**3):
siesta:     0.006823   -0.002359    0.001166
siesta:    -0.002359   -0.000900    0.001228
siesta:     0.001166    0.001228   -0.004000

siesta: Cell volume =      13041.289483 Ang**3

siesta: Pressure (static):
siesta:                Solid            Molecule  Units
siesta:          -0.00000698          0.00001654  Ry/Bohr**3
siesta:          -0.00064090          0.00151888  eV/Ang**3
siesta:          -1.02684175          2.43354728  kBar
(Free)E+ p_basis*V_orbitals  =     -374628.235921
(Free)Eharris+ p_basis*V_orbitals  =     -374628.155573

Optical: Performing optical calculation:

Optical: Polarization type       = polarized
Optical: Minimum of energy range =   0.0001 Ry
Optical: Maximum of energy range =   7.3498 Ry
Optical: Gaussian broadening     =   0.0037 Ry
Optical: Scissor operator        =   0.0000 Ry
Optical: Number of bands         =    13386
Optical: Number of electrons     =     5346
Optical: BZ mesh dimensions      =    1   1   1

Optical: electric field direction
Optical:      0.00000     0.00000     1.00000

Optical: Checking f-sum rule  0.879959
Optical: For insulators and closed shell systems
Optical: this number should be close to 1 if an enough
Optical: number of unoccupied bands have been included

elaps:  Routine       Calls   Time/call    Tot.time        %
elaps:  siesta            1  108222.702  108222.702   100.00
elaps:  Setup             1       7.176       7.176     0.01
elaps:  bands             1       0.000       0.000     0.00
elaps:  writewave         1       0.001       0.001     0.00
elaps:  KSV_init          1       0.000       0.000     0.00
elaps:  IterMD            1    4887.454    4887.454     4.52
elaps:  hsparse           1       0.551       0.551     0.00
elaps:  overlap           1       1.528       1.528     0.00
elaps:  IterSCF          20     241.058    4821.166     4.45
elaps:  kinefsm           2       0.795       1.589     0.00
elaps:  nlefsm            2       4.195       8.389     0.01
elaps:  DHSCF            21      23.698     497.662     0.46
elaps:  DHSCF1            1       0.769       0.769     0.00
elaps:  DHSCF2            1      21.117      21.117     0.02
elaps:  REORD           128       0.002       0.216     0.00
elaps:  POISON           22       0.772      16.976     0.02
elaps:  DHSCF3           21      22.173     465.630     0.43
elaps:  rhoofd           21       7.215     151.525     0.14
elaps:  cellXC           21       1.301      27.317     0.03
elaps:  vmat             21       9.992     209.836     0.19
elaps:  MolMec            2       0.003       0.005     0.00
elaps:  diagon           20     176.143    3522.854     3.26
elaps:  r-eigvec         20     171.103    3422.053     3.16
elaps:  r-buildHS        20       0.025       0.494     0.00
elaps:  rdiag            21     171.300    3597.302     3.32
elaps:  rdiag1           21       5.209     109.387     0.10
elaps:  rdiag2           21      30.204     634.284     0.59
elaps:  rdiag3           21     122.932    2581.566     2.39
elaps:  rdiag4           21      12.180     255.779     0.24
elaps:  r-buildD         20       5.030     100.598     0.09
elaps:  DHSCF4            1      10.030      10.030     0.01
elaps:  dfscf             1       8.972       8.972     0.01
elaps:  overfsm           1       0.095       0.095     0.00
elaps:  optical           1  103327.097  103327.097    95.48
elaps:  phirphiopt        1      20.081      20.081     0.02
elaps:  transrate         1  103123.116  103123.116    95.29

>> End of run:  19-SEP-2014  18:01:16