>> Start of run:  26-MAR-2012   5:00:27

reinit: Reading from standard input
************************** Dump of input data file ****************************
SystemName      optical
SystemLabel     optical
NumberOfAtoms   1282
NumberOfSpecies 4
MD.TypeOfRun    CG
MD.NumCGsteps   0
MD.ConstantVolume  .true.
SolutionMethod  diagon
XC.functional   GGA
XC.authors      PBE
PAO.BasisSize   DZP
DM.NumberPulay  7
DM.MixingWeight 0.1
DirectPhi       .true.
MeshCutoff      500 Ry
MaxSCFiterations 200
UseSaveData     .true.
WriteMullikenPop 1
OpticalCalculation      .true.
%block Optical.Mesh
 1 1 1
%endblock Optical.Mesh
Optical.PolarizationType  polarized
%block Optical.Vector
 0.0 1.0 0.0
%endblock Optical.Vector
Optical.Broaden         0.05 eV
Optical.EnergyMinimum   0.001 eV
Optical.EnergyMaximum   100.0 eV
%block ChemicalSpeciesLabel
 1   1   H
 2   6   C
 3   9   F
 4  47   Ag
%endblock ChemicalSpeciesLabel
LatticeConstant 1.0 Ang
%block LatticeParameters
  22.534   24.472   23.649   90.0 90.0 90.0
%endblock LatticeParameters
AtomicCoordinatesFormat Ang
%block AtomicCoordinatesAndAtomicSpecies < struct.coor
%endblock AtomicCoordinatesAndAtomicSpecies
************************** End of input data file *****************************

reinit: -----------------------------------------------------------------------
reinit: System Name: optical
reinit: -----------------------------------------------------------------------
reinit: System Label: optical
reinit: -----------------------------------------------------------------------

initatom: Reading input for the pseudopotentials and atomic orbitals ----------
 Species number:            1  Label: H Atomic number:           1
 Species number:            2  Label: C Atomic number:           6
 Species number:            3  Label: F Atomic number:           9
 Species number:            4  Label: Ag Atomic number:          47
Ground state valence configuration:   1s01
Reading pseudopotential information in formatted form from H.psf

Valence configuration for pseudopotential generation:
1s( 1.00) rc: 1.33
2p( 0.00) rc: 1.33
3d( 0.00) rc: 0.37
4f( 0.00) rc: 1.33
Ground state valence configuration:   2s02  2p02
Reading pseudopotential information in formatted form from C.psf

Valence configuration for pseudopotential generation:
2s( 2.00) rc: 1.56
2p( 2.00) rc: 1.56
3d( 0.00) rc: 1.56
4f( 0.00) rc: 1.56
Ground state valence configuration:   2s02  2p05
Reading pseudopotential information in formatted form from F.psf

Valence configuration for pseudopotential generation:
2s( 2.00) rc: 1.41
2p( 5.00) rc: 1.41
3d( 0.00) rc: 1.41
4f( 0.00) rc: 1.41
Ground state valence configuration:   5s01  4d10
Reading pseudopotential information in formatted form from Ag.psf

Valence configuration for pseudopotential generation:
5s( 1.00) rc: 2.52
5p( 0.00) rc: 2.72
4d(10.00) rc: 2.52
4f( 0.00) rc: 2.52
For H, standard SIESTA heuristics set lmxkb to 2
 (one more than the basis l, including polarization orbitals).
Use PS.lmax or PS.KBprojectors blocks to override.
For C, standard SIESTA heuristics set lmxkb to 3
 (one more than the basis l, including polarization orbitals).
Use PS.lmax or PS.KBprojectors blocks to override.
For F, standard SIESTA heuristics set lmxkb to 3
 (one more than the basis l, including polarization orbitals).
Use PS.lmax or PS.KBprojectors blocks to override.
For Ag, standard SIESTA heuristics set lmxkb to 3
 (one more than the basis l, including polarization orbitals).
Use PS.lmax or PS.KBprojectors blocks to override.

<basis_specs>
H                    Z=   1    Mass=  1.0100        Charge= 0.17977+309
Lmxo=0 Lmxkb= 2    BasisType=split      Semic=F
L=0  Nsemic=0  Cnfigmx=1
          n=1  nzeta=2  polorb=1
            splnorm:   0.15000
               vcte:    0.0000
               rinn:    0.0000
                rcs:    0.0000      0.0000
            lambdas:    1.0000      1.0000
L=0  Nkbl=1  erefs: 0.17977+309
L=1  Nkbl=1  erefs: 0.17977+309
L=2  Nkbl=1  erefs: 0.17977+309
</basis_specs>

atom: Called for H                     (Z =   1)

read_vps: Pseudopotential generation method:
read_vps: ATM 3.2.2 Troullier-Martins
Total valence charge:    1.00000

xc_check: Exchange-correlation functional:
xc_check: GGA Perdew, Burke & Ernzerhof 1996
V l=0 = -2*Zval/r beyond r=  1.2656
V l=1 = -2*Zval/r beyond r=  1.2498
V l=2 = -2*Zval/r beyond r=  0.3563
All V_l potentials equal beyond r=  1.2656
This should be close to max(r_c) in ps generation
All pots = -2*Zval/r beyond r=  1.2656

VLOCAL1: 99.0% of the norm of Vloc inside     27.100 Ry
VLOCAL1: 99.9% of the norm of Vloc inside     61.762 Ry
atom: Maximum radius for 4*pi*r*r*local-pseudopot. charge    1.48935
atom: Maximum radius for r*vlocal+2*Zval:    1.24984
GHOST: No ghost state for L =  0
GHOST: No ghost state for L =  1
GHOST: No ghost state for L =  2

KBgen: Kleinman-Bylander projectors:
   l= 0   rc=  1.398961   el= -0.477209   Ekb= -2.001853   kbcos= -0.352188
   l= 1   rc=  1.470814   el=  0.001006   Ekb= -0.423408   kbcos= -0.024395
   l= 2   rc=  1.489346   el=  0.001895   Ekb= -0.481957   kbcos= -0.001574

KBgen: Total number of  Kleinman-Bylander projectors:    9
atom: -------------------------------------------------------------------------

atom: SANKEY-TYPE ORBITALS:
atom: Selected multiple-zeta basis: split

SPLIT: Orbitals with angular momentum L= 0

SPLIT: Basis orbitals for state 1s

SPLIT: PAO cut-off radius determined from an
SPLIT: energy shift=  0.020000 Ry

   izeta = 1
                 lambda =    1.000000
                     rc =    4.708991
                 energy =   -0.457764
                kinetic =    0.979534
    potential(screened) =   -1.437298
       potential(ionic) =   -1.965615

   izeta = 2
                 rmatch =    3.759707
              splitnorm =    0.150000
                 energy =   -0.339003
                kinetic =    1.582546
    potential(screened) =   -1.921548
       potential(ionic) =   -2.471878

POLgen: Perturbative polarization orbital with L=  1

POLgen: Polarization orbital for state 1s

   izeta = 1
                     rc =    4.708991
                 energy =    0.764951
                kinetic =    1.476882
    potential(screened) =   -0.711931
       potential(ionic) =   -1.204335
atom: Total number of Sankey-type orbitals:  5

atm_pop: Valence configuration (for local Pseudopot. screening):
 1s( 1.00)
Vna: chval, zval:    1.00000   1.00000

Vna:  Cut-off radius for the neutral-atom potential:   4.708991

atom: _________________________________________________________________________

<basis_specs>
C                    Z=   6    Mass=  12.010        Charge= 0.17977+309
Lmxo=1 Lmxkb= 3    BasisType=split      Semic=F
L=0  Nsemic=0  Cnfigmx=2
          n=1  nzeta=2  polorb=0
            splnorm:   0.15000
               vcte:    0.0000
               rinn:    0.0000
                rcs:    0.0000      0.0000
            lambdas:    1.0000      1.0000
L=1  Nsemic=0  Cnfigmx=2
          n=1  nzeta=2  polorb=1
            splnorm:   0.15000
               vcte:    0.0000
               rinn:    0.0000
                rcs:    0.0000      0.0000
            lambdas:    1.0000      1.0000
L=0  Nkbl=1  erefs: 0.17977+309
L=1  Nkbl=1  erefs: 0.17977+309
L=2  Nkbl=1  erefs: 0.17977+309
L=3  Nkbl=1  erefs: 0.17977+309
</basis_specs>

[...]

SPLIT: Basis orbitals for state 2p

[...]

POLgen: Polarization orbital for state 2p

[...]

atm_pop: Valence configuration (for local Pseudopot. screening):
 2s( 2.00)
 2p( 2.00)
Vna: chval, zval:    4.00000   4.00000

[...]

SPLIT: Basis orbitals for state 2p

[...]

POLgen: Polarization orbital for state 2p

[...]

atm_pop: Valence configuration (for local Pseudopot. screening):
 2s( 2.00)
 2p( 5.00)
Vna: chval, zval:    7.00000   7.00000

[...]

<basis_specs>
Ag                   Z=  47    Mass=  107.87        Charge= 0.17977+309
Lmxo=2 Lmxkb= 3    BasisType=split      Semic=F
L=0  Nsemic=0  Cnfigmx=5
          n=1  nzeta=2  polorb=1
            splnorm:   0.15000
               vcte:    0.0000
               rinn:    0.0000
                rcs:    0.0000      0.0000
            lambdas:    1.0000      1.0000
L=1  Nsemic=0  Cnfigmx=5
L=2  Nsemic=0  Cnfigmx=4
          n=1  nzeta=2  polorb=0
            splnorm:   0.15000
               vcte:    0.0000
               rinn:    0.0000
                rcs:    0.0000      0.0000
            lambdas:    1.0000      1.0000
L=0  Nkbl=1  erefs: 0.17977+309
L=1  Nkbl=1  erefs: 0.17977+309
L=2  Nkbl=1  erefs: 0.17977+309
L=3  Nkbl=1  erefs: 0.17977+309
</basis_specs>

atom: Called for Ag                    (Z =  47)

read_vps: Pseudopotential generation method:
read_vps: ATM 3.2.2 Troullier-Martins
Total valence charge:   11.00000

xc_check: Exchange-correlation functional:
xc_check: GGA Perdew, Burke & Ernzerhof 1996
V l=0 = -2*Zval/r beyond r=  2.4592
V l=1 = -2*Zval/r beyond r=  2.6507
V l=2 = -2*Zval/r beyond r=  2.4592
V l=3 = -2*Zval/r beyond r=  2.4592
All V_l potentials equal beyond r=  2.6507
This should be close to max(r_c) in ps generation
All pots = -2*Zval/r beyond r=  2.6507

VLOCAL1: 99.0% of the norm of Vloc inside      6.178 Ry
VLOCAL1: 99.9% of the norm of Vloc inside     14.079 Ry
atom: Maximum radius for 4*pi*r*r*local-pseudopot. charge    3.19739
atom: Maximum radius for r*vlocal+2*Zval:    2.82168
GHOST: No ghost state for L =  0
GHOST: No ghost state for L =  1
GHOST: No ghost state for L =  2
GHOST: No ghost state for L =  3

KBgen: Kleinman-Bylander projectors:
   l= 0   rc=  2.966357   el= -0.323666   Ekb=  3.565490   kbcos=  0.247453
   l= 1   rc=  3.003670   el= -0.054265   Ekb=  1.619308   kbcos=  0.223076
   l= 2   rc=  2.786631   el= -0.547066   Ekb= -7.840816   kbcos= -0.714112
   l= 3   rc=  3.079709   el=  0.002953   Ekb= -2.732950   kbcos= -0.012571

KBgen: Total number of  Kleinman-Bylander projectors:   16
atom: -------------------------------------------------------------------------

atom: SANKEY-TYPE ORBITALS:
atom: Selected multiple-zeta basis: split

[...]

SPLIT: Basis orbitals for state 5s

[...]

SPLIT: Orbitals with angular momentum L= 2

SPLIT: Basis orbitals for state 4d

SPLIT: PAO cut-off radius determined from an
SPLIT: energy shift=  0.020000 Ry

   izeta = 1
                 lambda =    1.000000
                     rc =    3.954440
                 energy =   -0.527442
                kinetic =    6.210364
    potential(screened) =   -6.737807
       potential(ionic) =  -18.733043

   izeta = 2
                 rmatch =    2.490121
              splitnorm =    0.150000
                 energy =   -0.148928
                kinetic =    8.576261
    potential(screened) =   -8.725189
       potential(ionic) =  -21.658221

POLgen: Perturbative polarization orbital with L=  1

POLgen: Polarization orbital for state 5s

   izeta = 1
                     rc =    6.684855
                 energy =   -0.001728
                kinetic =    0.597115
    potential(screened) =   -0.598843
       potential(ionic) =   -7.554613
atom: Total number of Sankey-type orbitals: 15

atm_pop: Valence configuration (for local Pseudopot. screening):
 5s( 1.00)
 5p( 0.00)
 4d(10.00)
Vna: chval, zval:   11.00000  11.00000

[...]
              0.003   0.005   0.007   0.005   0.002
  36  6.938   1.466   0.279   1.780   1.416   1.865   0.004   0.113  -0.005
              0.002   0.006   0.006   0.004   0.001
  37  6.892   1.461   0.286   1.498   1.648   1.768   0.103   0.073   0.034
              0.005   0.006   0.003   0.003   0.004
  42  6.934   1.461   0.282   1.337   1.881   1.824   0.133  -0.016   0.012
              0.005   0.005   0.003   0.001   0.006
  43  6.927   1.442   0.295   1.788   1.703   1.557   0.026   0.025   0.071
              0.003   0.002   0.004   0.006   0.004
  48  6.935   1.473   0.274   1.768   1.795   1.468   0.013   0.022   0.103
              0.005   0.002   0.003   0.004   0.005
  49  6.928   1.460   0.284   1.857   1.580   1.595  -0.009   0.066   0.076
              0.003   0.003   0.005   0.006   0.002
  54  6.905   1.464   0.283   1.763   1.537   1.663   0.034   0.079   0.062
              0.002   0.003   0.005   0.006   0.003
  55  6.923   1.468   0.279   1.303   1.828   1.873   0.143   0.014  -0.006
              0.005   0.005   0.003   0.001   0.007
  60  6.945   1.453   0.287   1.592   1.654   1.850   0.061   0.036  -0.007
              0.003   0.006   0.005   0.002   0.003
  61  6.939   1.451   0.289   1.745   1.883   1.442   0.016  -0.011   0.104
              0.006   0.002   0.002   0.004   0.005
  66  6.911   1.429   0.302   1.773   1.490   1.755   0.016   0.087   0.041
              0.002   0.005   0.005   0.005   0.002
  67  6.923   1.455   0.285   1.480   1.648   1.882   0.095   0.068  -0.010
              0.004   0.006   0.003   0.002   0.004
  72  6.928   1.459   0.283   1.320   1.846   1.864   0.139   0.001  -0.005
              0.004   0.006   0.003   0.001   0.006
  73  6.929   1.450   0.288   1.862   1.721   1.461  -0.010   0.036   0.100
              0.003   0.001   0.004   0.006   0.005
  78  6.916   1.463   0.281   1.817   1.779   1.383   0.020   0.023   0.131
              0.004   0.001   0.003   0.006   0.005
  79  6.928   1.447   0.291   1.548   1.663   1.837   0.072   0.054  -0.005
              0.003   0.006   0.004   0.002   0.004
  84  6.919   1.464   0.282   1.829   1.856   1.305   0.003   0.001   0.161
              0.005   0.001   0.003   0.005   0.005
  85  6.933   1.467   0.279   1.568   1.764   1.694   0.080   0.016   0.046
              0.004   0.005   0.004   0.003   0.004
  90  6.943   1.454   0.287   1.841   1.351   1.902  -0.006   0.118  -0.024
              0.001   0.005   0.007   0.005   0.001
  91  6.929   1.454   0.286   1.348   1.781   1.906   0.146   0.011  -0.022
              0.005   0.005   0.003   0.001   0.005
[...]
              0.003   0.005   0.005   0.005   0.002
1231  6.901   1.438   0.296   1.320   1.769   1.863   0.161   0.031   0.002
              0.006   0.005   0.003   0.001   0.006
1236  6.932   1.457   0.285   1.833   1.397   1.817  -0.006   0.120   0.009
              0.002   0.004   0.007   0.005   0.001
1237  6.896   1.456   0.288   1.328   1.741   1.842   0.159   0.051   0.008
              0.006   0.006   0.003   0.002   0.005
1242  6.946   1.457   0.285   1.729   1.642   1.732   0.015   0.054   0.014
              0.004   0.004   0.003   0.004   0.004
1243  6.954   1.468   0.277   1.874   1.596   1.643  -0.015   0.058   0.036
              0.003   0.003   0.004   0.006   0.002
1248  6.916   1.466   0.280   1.841   1.817   1.313   0.009   0.017   0.152
              0.005   0.001   0.003   0.005   0.006
1249  6.927   1.469   0.277   1.487   1.689   1.841   0.089   0.049   0.008
              0.003   0.006   0.003   0.001   0.004

Species: Ag
Atom  Qatom  Qorb
1251 11.034   0.241   0.539   1.866   1.904   1.869   1.895   1.864   0.038
              0.019   0.039   0.022   0.037   0.252   0.195   0.256
1252 11.052   0.520   0.382   1.937   1.945   1.920   1.959   1.907  -0.001
             -0.007   0.003  -0.012   0.006   0.204   0.137   0.150
1253 11.041   0.538   0.380   1.928   1.899   1.919   1.955   1.899   0.009
              0.018   0.004  -0.006   0.011   0.213   0.120   0.154
1254 11.017   0.547   0.379   1.892   1.952   1.918   1.923   1.914   0.016
              0.000   0.005   0.005   0.009   0.145   0.125   0.186
1255 11.019   0.379   0.485   1.921   1.918   1.919   1.967   1.929   0.002
              0.004   0.005  -0.011   0.000   0.170   0.151   0.178
1256 11.035   0.526   0.436   1.865   1.969   1.898   1.915   1.918   0.030
             -0.008   0.016   0.006   0.007   0.133   0.123   0.201
1257 11.010   0.400   0.444   1.898   1.913   1.921   1.932   1.908   0.017
              0.012   0.006   0.010   0.018   0.192   0.146   0.193
1258 11.029   0.401   0.419   1.893   1.899   1.891   1.905   1.879   0.020
              0.022   0.029   0.018   0.028   0.189   0.188   0.248
1259 11.068   0.633   0.413   1.911   1.982   1.927   1.928   1.956   0.002
             -0.022  -0.008   0.000  -0.012   0.119   0.102   0.137
1260 11.034   0.364   0.429   1.884   1.914   1.919   1.921   1.890   0.022
              0.013   0.013   0.008   0.020   0.240   0.184   0.214
1261 10.984   0.242   0.521   1.868   1.907   1.871   1.897   1.883   0.035
              0.017   0.042   0.024   0.025   0.254   0.195   0.202
1262 11.063   0.709   0.254   1.967   1.949   1.939   1.969   1.939  -0.018
             -0.011  -0.012  -0.014  -0.007   0.138   0.134   0.128
1263 10.990   0.524   0.432   1.904   1.931   1.860   1.939   1.928   0.021
              0.002   0.034   0.004   0.000   0.142   0.133   0.136
1264 11.081   0.444   0.466   1.878   1.912   1.892   1.905   1.852   0.025
              0.015   0.021   0.019   0.041   0.225   0.189   0.197
1265 11.035   0.410   0.444   1.866   1.911   1.897   1.907   1.862   0.030
              0.016   0.026   0.018   0.039   0.230   0.198   0.181
1266 11.062   0.376   0.472   1.898   1.907   1.907   1.915   1.871   0.016
              0.023   0.014   0.011   0.028   0.205   0.185   0.235
1267 11.012   0.543   0.347   1.915   1.974   1.940   1.929   1.979   0.006
             -0.015  -0.008  -0.002  -0.019   0.136   0.137   0.151
1268 10.983   0.535   0.369   1.934   1.937   1.926   1.974   1.912   0.002
             -0.003   0.006  -0.015   0.007   0.128   0.152   0.119
1269 10.882   0.307   0.446   1.907   1.922   1.914   1.942   1.885   0.024
              0.008   0.019   0.008   0.024   0.146   0.170   0.158
1270 11.110   0.385   0.514   1.923   1.875   1.874   1.924   1.903   0.011
              0.026   0.024   0.012   0.014   0.228   0.242   0.154
1271 11.051   0.359   0.501   1.919   1.871   1.876   1.918   1.895   0.015
              0.032   0.024   0.014   0.019   0.229   0.217   0.163
1272 11.055   0.362   0.509   1.867   1.911   1.869   1.886   1.911   0.035
              0.016   0.029   0.027   0.016   0.177   0.229   0.211
1273 11.064   0.385   0.489   1.893   1.889   1.877   1.873   1.900   0.024
              0.030   0.025   0.030   0.022   0.186   0.236   0.205
1274 10.998   0.287   0.546   1.899   1.906   1.869   1.870   1.874   0.020
              0.019   0.030   0.035   0.038   0.171   0.225   0.210
1275 11.111   0.502   0.423   1.909   1.915   1.885   1.889   1.921   0.012
              0.012   0.018   0.019   0.010   0.173   0.218   0.208
1276 11.055   0.151   0.563   1.882   1.890   1.877   1.889   1.885   0.031
              0.030   0.032   0.030   0.031   0.254   0.255   0.256
1277 11.079   0.412   0.490   1.894   1.883   1.897   1.912   1.876   0.018
              0.029   0.019   0.014   0.025   0.204   0.185   0.221
1278 10.914   0.372   0.426   1.899   1.968   1.932   1.895   1.944   0.017
             -0.010   0.005   0.015   0.004   0.146   0.149   0.153
1279 11.149   0.502   0.446   1.875   1.917   1.904   1.912   1.893   0.023
              0.011   0.017   0.011   0.017   0.221   0.172   0.228
1280 11.049   0.343   0.513   1.877   1.904   1.872   1.909   1.893   0.029
              0.019   0.032   0.014   0.021   0.220   0.189   0.214
1281 10.942   0.397   0.442   1.947   1.919   1.936   1.929   1.936  -0.006
              0.007   0.000   0.007  -0.001   0.151   0.142   0.136
1282 11.017   0.557   0.376   1.932   1.939   1.940   1.933   1.920   0.002
             -0.004  -0.005   0.002   0.004   0.138   0.148   0.135

mulliken: Qtot =     5346.000

siesta: Program's energy decomposition (eV):
siesta: Ebs     =    -75958.565576
siesta: Eions   =    528240.072706
siesta: Ena     =     58051.865463
siesta: Ekin    =    270083.416976
siesta: Enl     =    -93477.940701
siesta: DEna    =       232.019933
siesta: DUscf   =       347.389364
siesta: DUext   =         0.000000
siesta: Exc     =    -81900.803348
siesta: eta*DQ  =         0.000000
siesta: Emadel  =         0.000000
siesta: Emeta   =         0.000000
siesta: Emolmec =         0.000000
siesta: Ekinion =         0.000000
siesta: Eharris =   -374904.128127
siesta: Etot    =   -374904.125020
siesta: FreeEng =   -374904.203184

siesta: Final energy (eV):
siesta:  Band Struct. =  -75958.565576
siesta:       Kinetic =  270083.416976
siesta:       Hartree =  180140.817019
siesta:    Ext. field =       0.000000
siesta:   Exch.-corr. =  -81900.803348
siesta:  Ion-electron = -599942.024597
siesta:       Ion-ion = -143285.531070
siesta:       Ekinion =       0.000000
siesta:         Total = -374904.125020

siesta: Atomic forces (eV/Ang):
siesta:      1   -0.265422    0.594631    1.330858
siesta:      2    0.483661    0.972501   -0.104075
siesta:      3   -0.334934   -0.599219   -0.634647
siesta:      4    0.562097   -0.584502    0.242157
siesta:      5    1.699144   -0.233708   -0.486354
siesta:      6   -1.076240    1.746870   -0.628503
siesta:      7   -0.956651   -1.478606    0.606759
siesta:      8    0.316556    0.580687    0.096123
siesta:      9   -0.668196    0.143170    0.139370
siesta:     10   -0.474033   -0.810232    0.762258
siesta:     11   -0.728129   -0.414342    0.428948
siesta:     12    1.047591   -1.301690    0.258613
siesta:     13    0.355569    1.550417   -1.210131
siesta:     14   -0.154153   -0.945828   -0.382272
siesta:     15    0.561953    0.588260   -0.437085
siesta:     16   -0.469846    0.480553    0.262999
siesta:     17   -0.109060   -0.877246   -0.547667
siesta:     18    0.867662    0.845947    0.231836
siesta:     19   -1.437382   -0.514190    0.481031
siesta:     20   -0.327889    0.157717   -1.406448
siesta:     21    1.038174    0.202906   -0.553817
siesta:     22    0.361815    0.052992    1.443745
siesta:     23    0.608578    0.063221   -0.366896
siesta:     24   -0.101109   -0.950279    1.778346
siesta:     25   -1.599304    0.234568   -0.773554
siesta:     26    0.861557    0.732783    0.187154
siesta:     27   -0.328315   -0.240584   -0.470691
siesta:     28    0.463832    0.209524   -0.589455
siesta:     29   -0.210730    1.352927    0.855965
siesta:     30   -0.689189   -0.895382    0.796228
siesta:     31    0.688865   -0.261014   -0.755385
siesta:     32    0.426819   -0.168006    0.043677
siesta:     33   -0.356500   -0.021257    0.620084
siesta:     34    0.080978   -0.941304   -0.100904
siesta:     35    0.101045   -0.269816   -0.470103
siesta:     36    0.416163    0.327605   -1.542912
siesta:     37   -0.561931    1.200654    0.869158
siesta:     38   -0.190995   -0.873523   -0.640753
siesta:     39    0.042486    0.519638    0.496611
siesta:     40    0.187073   -0.680367    0.344112
siesta:     41   -0.885023   -0.633272   -0.034338
siesta:     42    0.060964    0.972539   -0.496724
siesta:     43    0.702803   -0.596380    0.947903
siesta:     44   -0.619950   -0.372171   -0.579185
siesta:     45   -0.492754    0.467164   -0.542372
siesta:     46    0.977639    0.308948   -0.526781
siesta:     47    0.113816    0.478400    0.331700
siesta:     48    1.449683   -0.513478    0.160903
siesta:     49   -1.172922   -0.185813    0.438362
siesta:     50    0.734856    0.667320    0.032600
siesta:     51    0.242315   -0.936465    0.386409
siesta:     52   -0.864191    0.385057   -0.445790
siesta:     53    0.546759   -0.103510    0.167448
siesta:     54   -0.405356   -0.598978   -0.530706
siesta:     55    0.033431    1.592903    0.001897
siesta:     56   -0.508394    0.333351   -0.053737
siesta:     57    0.463170   -0.374489    0.758006
siesta:     58   -0.053185   -1.009696   -0.500666
siesta:     59   -0.726102    0.752033   -0.574561
siesta:     60    0.084861    1.463853    0.890987
[...]
siesta:   1268    0.818206    0.348856    0.703793
siesta:   1269   -1.494812    0.379238    0.538524
siesta:   1270   -0.380479    0.002035    0.237289
siesta:   1271    0.364403   -0.142556    0.354701
siesta:   1272   -0.662009   -0.455420    0.143920
siesta:   1273   -0.739382    0.642051    0.041463
siesta:   1274    0.211678   -0.430072    0.093068
siesta:   1275    0.093652    0.279822   -0.038702
siesta:   1276    0.001987   -0.031511    0.013536
siesta:   1277   -0.164751   -0.125953   -0.376005
siesta:   1278   -0.181593    0.798592   -0.668188
siesta:   1279   -0.141016    0.058855   -0.223227
siesta:   1280    0.394923    0.524715   -0.346713
siesta:   1281   -0.539989   -0.470295   -0.823466
siesta:   1282    0.784751   -0.360413   -0.382919
siesta: ----------------------------------------
siesta:    Tot    0.020338   -0.235425    0.100389

siesta: Stress tensor (static) (eV/Ang**3):
siesta:     0.000034    0.000324    0.002514
siesta:     0.000324   -0.001005   -0.000041
siesta:     0.002514   -0.000041    0.000116

siesta: Cell volume =      13041.289483 Ang**3

siesta: Pressure (static):
siesta:                Solid            Molecule  Units
siesta:           0.00000311         -0.00027778  Ry/Bohr**3
siesta:           0.00028521         -0.02550444  eV/Ang**3
siesta:           0.45696726        -40.86305953  kBar
(Free)E+ p_basis*V_orbitals  =     -374628.603655
(Free)Eharris+ p_basis*V_orbitals  =     -374628.614083

Optical: Performing optical calculation:

Optical: Polarization type       = polarized
Optical: Minimum of energy range =   0.0001 Ry
Optical: Maximum of energy range =   7.3498 Ry
Optical: Gaussian broadening     =   0.0037 Ry
Optical: Scissor operator        =   0.0000 Ry
Optical: Number of bands         =    13386
Optical: BZ mesh dimensions      =    1   1   1

Optical: electric field direction
Optical:      0.00000     1.00000     0.00000

Optical: Checking f-sum rule  0.880099
Optical: For insulators and closed shell systems
Optical: this number should be close to 1 if an enough
Optical: number of unoccupied bands have been included

elaps:  Routine       Calls   Time/call    Tot.time        %
elaps:  siesta            1   23927.259   23927.259   100.00
elaps:  Setup             1       3.391       3.391     0.01
elaps:  bands             1       0.000       0.000     0.00
elaps:  writewave         1       0.001       0.001     0.00
elaps:  KSV_init          1       0.000       0.000     0.00
elaps:  IterMD            1    3463.104    3463.104    14.47
elaps:  hsparse           1       0.543       0.543     0.00
elaps:  overlap           1       1.458       1.458     0.01
elaps:  IterSCF          25     136.896    3422.394    14.30
elaps:  kinefsm           2       0.754       1.508     0.01
elaps:  nlefsm            2       3.791       7.583     0.03
elaps:  DHSCF            26      18.976     493.389     2.06
elaps:  DHSCF1            1       0.692       0.692     0.00
elaps:  DHSCF2            1      23.714      23.714     0.10
elaps:  REORD           158       0.001       0.229     0.00
elaps:  POISON           27       0.288       7.777     0.03
elaps:  DHSCF3           26      17.719     460.684     1.93
elaps:  rhoofd           26       5.541     144.055     0.60
elaps:  cellXC           26       1.535      39.922     0.17
elaps:  vmat             26       7.238     188.178     0.79
elaps:  MolMec            2       0.002       0.003     0.00
elaps:  diagon           25     106.388    2659.692    11.12
elaps:  r-eigvec         25     103.996    2599.905    10.87
elaps:  r-buildHS        25       0.015       0.384     0.00
elaps:  rdiag            26     104.158    2708.104    11.32
elaps:  rdiag1           26       3.839      99.804     0.42
elaps:  rdiag2           26      24.649     640.865     2.68
elaps:  rdiag3           26      64.762    1683.824     7.04
elaps:  rdiag4           26      10.334     268.689     1.12
elaps:  r-buildD         25       2.383      59.586     0.25
elaps:  DHSCF4            1       8.205       8.205     0.03
elaps:  dfscf             1       7.282       7.282     0.03
elaps:  overfsm           1       0.078       0.078     0.00
elaps:  optical           1   20460.152   20460.152    85.51
elaps:  phirphiopt        1      25.356      25.356     0.11
elaps:  transrate         1   20322.961   20322.961    84.94

>> End of run:  28-MAR-2012  23:18:22