>> Start of run:  23-APR-2012  17:42:20

reinit: Reading from standard input
************************** Dump of input data file ****************************
SystemName      optical
SystemLabel     optical
NumberOfAtoms   1282
NumberOfSpecies 4
MD.TypeOfRun    CG
MD.NumCGsteps   1
MD.ConstantVolume  .true.
SolutionMethod  diagon
XC.functional   GGA
XC.authors      PBE
PAO.BasisSize   DZP
DM.NumberPulay  10
DM.MixingWeight 0.03
DirectPhi       .true.
MeshCutoff      500 Ry
MaxSCFiterations 200
UseSaveData     .true.
WriteMullikenPop 1
OpticalCalculation      .true.
%block Optical.Mesh
 1 1 1
%endblock Optical.Mesh
Optical.PolarizationType  polarized
%block Optical.Vector
 0.0 0.0 1.0
%endblock Optical.Vector
Optical.Broaden         0.05 eV
Optical.EnergyMinimum   0.001 eV
Optical.EnergyMaximum   100.0 eV
%block ChemicalSpeciesLabel
 1   1   H
 2   6   C
 3   9   F
 4  47   Ag
%endblock ChemicalSpeciesLabel
LatticeConstant 1.0 Ang
%block LatticeParameters
  22.534   24.472   23.649   90.0 90.0 90.0
%endblock LatticeParameters
AtomicCoordinatesFormat Ang
%block AtomicCoordinatesAndAtomicSpecies < struct.coor
%endblock AtomicCoordinatesAndAtomicSpecies
************************** End of input data file *****************************

reinit: -----------------------------------------------------------------------
reinit: System Name: optical
reinit: -----------------------------------------------------------------------
reinit: System Label: optical
reinit: -----------------------------------------------------------------------

initatom: Reading input for the pseudopotentials and atomic orbitals ----------
 Species number:            1  Label: H Atomic number:           1
 Species number:            2  Label: C Atomic number:           6
 Species number:            3  Label: F Atomic number:           9
 Species number:            4  Label: Ag Atomic number:          47
Ground state valence configuration:   1s01
Reading pseudopotential information in formatted form from H.psf

Valence configuration for pseudopotential generation:
1s( 1.00) rc: 1.33
2p( 0.00) rc: 1.33
3d( 0.00) rc: 0.37
4f( 0.00) rc: 1.33
Ground state valence configuration:   2s02  2p02
Reading pseudopotential information in formatted form from C.psf

Valence configuration for pseudopotential generation:
2s( 2.00) rc: 1.56
2p( 2.00) rc: 1.56
3d( 0.00) rc: 1.56
4f( 0.00) rc: 1.56
Ground state valence configuration:   2s02  2p05
Reading pseudopotential information in formatted form from F.psf

Valence configuration for pseudopotential generation:
2s( 2.00) rc: 1.41
2p( 5.00) rc: 1.41
3d( 0.00) rc: 1.41
4f( 0.00) rc: 1.41
Ground state valence configuration:   5s01  4d10
Reading pseudopotential information in formatted form from Ag.psf

Valence configuration for pseudopotential generation:
5s( 1.00) rc: 2.52
5p( 0.00) rc: 2.72
4d(10.00) rc: 2.52
4f( 0.00) rc: 2.52
For H, standard SIESTA heuristics set lmxkb to 2
 (one more than the basis l, including polarization orbitals).
Use PS.lmax or PS.KBprojectors blocks to override.
For C, standard SIESTA heuristics set lmxkb to 3
 (one more than the basis l, including polarization orbitals).
Use PS.lmax or PS.KBprojectors blocks to override.
For F, standard SIESTA heuristics set lmxkb to 3
 (one more than the basis l, including polarization orbitals).
Use PS.lmax or PS.KBprojectors blocks to override.
For Ag, standard SIESTA heuristics set lmxkb to 3
 (one more than the basis l, including polarization orbitals).
Use PS.lmax or PS.KBprojectors blocks to override.

<basis_specs>
H                    Z=   1    Mass=  1.0100        Charge= 0.17977+309
Lmxo=0 Lmxkb= 2    BasisType=split      Semic=F
L=0  Nsemic=0  Cnfigmx=1
          n=1  nzeta=2  polorb=1
            splnorm:   0.15000
               vcte:    0.0000
               rinn:    0.0000
                rcs:    0.0000      0.0000
            lambdas:    1.0000      1.0000
L=0  Nkbl=1  erefs: 0.17977+309
L=1  Nkbl=1  erefs: 0.17977+309
L=2  Nkbl=1  erefs: 0.17977+309
</basis_specs>

atom: Called for H                     (Z =   1)

read_vps: Pseudopotential generation method:
read_vps: ATM 3.2.2 Troullier-Martins
Total valence charge:    1.00000

xc_check: Exchange-correlation functional:
xc_check: GGA Perdew, Burke & Ernzerhof 1996
V l=0 = -2*Zval/r beyond r=  1.2656
V l=1 = -2*Zval/r beyond r=  1.2498
V l=2 = -2*Zval/r beyond r=  0.3563
All V_l potentials equal beyond r=  1.2656
This should be close to max(r_c) in ps generation
All pots = -2*Zval/r beyond r=  1.2656

VLOCAL1: 99.0% of the norm of Vloc inside     27.100 Ry
VLOCAL1: 99.9% of the norm of Vloc inside     61.762 Ry
atom: Maximum radius for 4*pi*r*r*local-pseudopot. charge    1.48935
atom: Maximum radius for r*vlocal+2*Zval:    1.24984
GHOST: No ghost state for L =  0
GHOST: No ghost state for L =  1
GHOST: No ghost state for L =  2

KBgen: Kleinman-Bylander projectors:
   l= 0   rc=  1.398961   el= -0.477209   Ekb= -2.001853   kbcos= -0.352188
   l= 1   rc=  1.470814   el=  0.001006   Ekb= -0.423408   kbcos= -0.024395
   l= 2   rc=  1.489346   el=  0.001895   Ekb= -0.481957   kbcos= -0.001574

KBgen: Total number of  Kleinman-Bylander projectors:    9
atom: -------------------------------------------------------------------------

atom: SANKEY-TYPE ORBITALS:
atom: Selected multiple-zeta basis: split

SPLIT: Orbitals with angular momentum L= 0

SPLIT: Basis orbitals for state 1s

SPLIT: PAO cut-off radius determined from an
SPLIT: energy shift=  0.020000 Ry

   izeta = 1
                 lambda =    1.000000
                     rc =    4.708991
                 energy =   -0.457764
                kinetic =    0.979534
    potential(screened) =   -1.437298
       potential(ionic) =   -1.965615

   izeta = 2
                 rmatch =    3.759707
              splitnorm =    0.150000
                 energy =   -0.339003
                kinetic =    1.582546
    potential(screened) =   -1.921548
       potential(ionic) =   -2.471878

POLgen: Perturbative polarization orbital with L=  1

POLgen: Polarization orbital for state 1s

   izeta = 1
                     rc =    4.708991
                 energy =    0.764951
                kinetic =    1.476882
    potential(screened) =   -0.711931
       potential(ionic) =   -1.204335
atom: Total number of Sankey-type orbitals:  5

atm_pop: Valence configuration (for local Pseudopot. screening):
 1s( 1.00)
Vna: chval, zval:    1.00000   1.00000

Vna:  Cut-off radius for the neutral-atom potential:   4.708991

atom: _________________________________________________________________________

<basis_specs>
C                    Z=   6    Mass=  12.010        Charge= 0.17977+309
Lmxo=1 Lmxkb= 3    BasisType=split      Semic=F
L=0  Nsemic=0  Cnfigmx=2
          n=1  nzeta=2  polorb=0
            splnorm:   0.15000
               vcte:    0.0000
               rinn:    0.0000
                rcs:    0.0000      0.0000
            lambdas:    1.0000      1.0000
L=1  Nsemic=0  Cnfigmx=2
          n=1  nzeta=2  polorb=1
            splnorm:   0.15000
               vcte:    0.0000
               rinn:    0.0000
                rcs:    0.0000      0.0000
            lambdas:    1.0000      1.0000
L=0  Nkbl=1  erefs: 0.17977+309
L=1  Nkbl=1  erefs: 0.17977+309
L=2  Nkbl=1  erefs: 0.17977+309
L=3  Nkbl=1  erefs: 0.17977+309
</basis_specs>

[...]

SPLIT: Basis orbitals for state 2p

[...]

POLgen: Polarization orbital for state 2p

[...]

atm_pop: Valence configuration (for local Pseudopot. screening):
 2s( 2.00)
 2p( 2.00)
Vna: chval, zval:    4.00000   4.00000

[...]

SPLIT: Basis orbitals for state 2p

[...]

POLgen: Polarization orbital for state 2p

[...]

atm_pop: Valence configuration (for local Pseudopot. screening):
 2s( 2.00)
 2p( 5.00)
Vna: chval, zval:    7.00000   7.00000

[...]

<basis_specs>
Ag                   Z=  47    Mass=  107.87        Charge= 0.17977+309
Lmxo=2 Lmxkb= 3    BasisType=split      Semic=F
L=0  Nsemic=0  Cnfigmx=5
          n=1  nzeta=2  polorb=1
            splnorm:   0.15000
               vcte:    0.0000
               rinn:    0.0000
                rcs:    0.0000      0.0000
            lambdas:    1.0000      1.0000
L=1  Nsemic=0  Cnfigmx=5
L=2  Nsemic=0  Cnfigmx=4
          n=1  nzeta=2  polorb=0
            splnorm:   0.15000
               vcte:    0.0000
               rinn:    0.0000
                rcs:    0.0000      0.0000
            lambdas:    1.0000      1.0000
L=0  Nkbl=1  erefs: 0.17977+309
L=1  Nkbl=1  erefs: 0.17977+309
L=2  Nkbl=1  erefs: 0.17977+309
L=3  Nkbl=1  erefs: 0.17977+309
</basis_specs>

atom: Called for Ag                    (Z =  47)

read_vps: Pseudopotential generation method:
read_vps: ATM 3.2.2 Troullier-Martins
Total valence charge:   11.00000

xc_check: Exchange-correlation functional:
xc_check: GGA Perdew, Burke & Ernzerhof 1996
V l=0 = -2*Zval/r beyond r=  2.4592
V l=1 = -2*Zval/r beyond r=  2.6507
V l=2 = -2*Zval/r beyond r=  2.4592
V l=3 = -2*Zval/r beyond r=  2.4592
All V_l potentials equal beyond r=  2.6507
This should be close to max(r_c) in ps generation
All pots = -2*Zval/r beyond r=  2.6507

VLOCAL1: 99.0% of the norm of Vloc inside      6.178 Ry
VLOCAL1: 99.9% of the norm of Vloc inside     14.079 Ry
atom: Maximum radius for 4*pi*r*r*local-pseudopot. charge    3.19739
atom: Maximum radius for r*vlocal+2*Zval:    2.82168
GHOST: No ghost state for L =  0
GHOST: No ghost state for L =  1
GHOST: No ghost state for L =  2
GHOST: No ghost state for L =  3

KBgen: Kleinman-Bylander projectors:
   l= 0   rc=  2.966357   el= -0.323666   Ekb=  3.565490   kbcos=  0.247453
   l= 1   rc=  3.003670   el= -0.054265   Ekb=  1.619308   kbcos=  0.223076
   l= 2   rc=  2.786631   el= -0.547066   Ekb= -7.840816   kbcos= -0.714112
   l= 3   rc=  3.079709   el=  0.002953   Ekb= -2.732950   kbcos= -0.012571

KBgen: Total number of  Kleinman-Bylander projectors:   16
atom: -------------------------------------------------------------------------

atom: SANKEY-TYPE ORBITALS:
atom: Selected multiple-zeta basis: split

[...]

SPLIT: Basis orbitals for state 5s

[...]

SPLIT: Orbitals with angular momentum L= 2

SPLIT: Basis orbitals for state 4d

SPLIT: PAO cut-off radius determined from an
SPLIT: energy shift=  0.020000 Ry

   izeta = 1
                 lambda =    1.000000
                     rc =    3.954440
                 energy =   -0.527442
                kinetic =    6.210364
    potential(screened) =   -6.737807
       potential(ionic) =  -18.733043

   izeta = 2
                 rmatch =    2.490121
              splitnorm =    0.150000
                 energy =   -0.148928
                kinetic =    8.576261
    potential(screened) =   -8.725189
       potential(ionic) =  -21.658221

POLgen: Perturbative polarization orbital with L=  1

POLgen: Polarization orbital for state 5s

   izeta = 1
                     rc =    6.684855
                 energy =   -0.001728
                kinetic =    0.597115
    potential(screened) =   -0.598843
       potential(ionic) =   -7.554613
atom: Total number of Sankey-type orbitals: 15

atm_pop: Valence configuration (for local Pseudopot. screening):
 5s( 1.00)
 5p( 0.00)
 4d(10.00)
Vna: chval, zval:   11.00000  11.00000

[...]
             -0.012   0.007   0.005   0.005   0.148   0.140   0.204
1257 11.050   0.542   0.423   1.903   1.921   1.916   1.946   1.924   0.008
              0.007   0.004  -0.001   0.005   0.157   0.128   0.168
1258 11.012   0.344   0.445   1.894   1.885   1.898   1.903   1.864   0.018
              0.032   0.024   0.021   0.034   0.193   0.206   0.250
1259 10.989   0.532   0.372   1.917   1.928   1.927   1.935   1.956   0.007
              0.009  -0.004  -0.001  -0.009   0.130   0.135   0.154
1260 11.018   0.369   0.420   1.877   1.907   1.900   1.907   1.893   0.023
              0.019   0.023   0.019   0.021   0.234   0.199   0.209
1261 11.025   0.384   0.415   1.878   1.906   1.901   1.910   1.893   0.026
              0.019   0.024   0.018   0.019   0.223   0.206   0.203
1262 11.054   0.656   0.312   1.970   1.948   1.935   1.973   1.943  -0.023
             -0.008  -0.012  -0.015  -0.011   0.136   0.125   0.126
1263 11.022   0.618   0.341   1.947   1.925   1.910   1.967   1.887  -0.007
              0.005   0.006  -0.011   0.020   0.149   0.146   0.117
1264 11.058   0.452   0.426   1.878   1.906   1.892   1.907   1.895   0.023
              0.018   0.022   0.018   0.019   0.218   0.183   0.201
1265 11.053   0.387   0.477   1.879   1.909   1.894   1.910   1.899   0.023
              0.017   0.021   0.016   0.016   0.217   0.183   0.204
1266 11.081   0.521   0.371   1.897   1.905   1.893   1.905   1.877   0.017
              0.017   0.023   0.018   0.027   0.187   0.202   0.220
1267 10.952   0.464   0.347   1.913   1.930   1.908   1.916   1.956   0.012
              0.007   0.016   0.010  -0.002   0.148   0.155   0.170
1268 11.002   0.612   0.332   1.964   1.940   1.935   1.970   1.928  -0.015
             -0.006  -0.006  -0.015  -0.004   0.121   0.129   0.119
1269 10.976   0.518   0.377   1.956   1.923   1.898   1.936   1.906  -0.007
              0.006   0.017   0.004   0.013   0.150   0.151   0.126
1270 11.007   0.275   0.542   1.921   1.875   1.878   1.914   1.885   0.013
              0.029   0.024   0.016   0.027   0.222   0.222   0.166
1271 11.087   0.416   0.446   1.927   1.880   1.883   1.925   1.907   0.009
              0.023   0.019   0.013   0.013   0.232   0.229   0.165
1272 11.065   0.421   0.471   1.908   1.910   1.872   1.878   1.905   0.014
              0.014   0.023   0.026   0.019   0.169   0.224   0.210
1273 11.029   0.320   0.513   1.891   1.913   1.877   1.894   1.909   0.026
              0.014   0.027   0.021   0.017   0.186   0.220   0.203
1274 11.007   0.255   0.577   1.872   1.885   1.864   1.877   1.905   0.038
              0.029   0.031   0.028   0.020   0.176   0.231   0.218
1275 11.038   0.342   0.518   1.906   1.890   1.881   1.894   1.899   0.016
              0.025   0.024   0.021   0.022   0.178   0.216   0.206
1276 11.079   0.157   0.592   1.877   1.883   1.871   1.883   1.875   0.033
              0.032   0.035   0.032   0.033   0.257   0.260   0.259
1277 11.092   0.428   0.470   1.899   1.919   1.906   1.920   1.878   0.013
              0.011   0.014   0.010   0.022   0.214   0.167   0.221
1278 10.986   0.607   0.382   1.890   1.954   1.901   1.891   1.932   0.015
             -0.003   0.015   0.019   0.008   0.125   0.122   0.127
1279 11.103   0.546   0.364   1.885   1.913   1.906   1.921   1.894   0.022
              0.011   0.015   0.010   0.016   0.216   0.169   0.214
1280 10.999   0.242   0.574   1.884   1.908   1.885   1.888   1.884   0.026
              0.016   0.029   0.027   0.025   0.225   0.182   0.205
1281 10.980   0.490   0.355   1.955   1.935   1.935   1.958   1.937  -0.010
             -0.002  -0.002  -0.007  -0.006   0.143   0.162   0.138
1282 10.954   0.374   0.478   1.956   1.913   1.925   1.961   1.890  -0.006
              0.012   0.003  -0.009   0.021   0.153   0.145   0.137

mulliken: Qtot =     5346.000

outcoor: Final (unrelaxed) atomic coordinates (Ang):
    6.77368222   16.35752325   15.87680020   2       1  C
    6.64855604   15.84437458   14.92383321   1       2  H
    5.83134556   16.80463459   16.18148615   1       3  H
    7.06790384   15.64181745   16.63790564   1       4  H
    7.83662541   17.45693788   15.73766921   2       5  C
    7.51830948   18.17903788   14.62518088   3       6  F
    7.64289756   18.32050261   16.76877610   3       7  F
    9.33542638   17.10221661   15.65802533   2       8  C
    9.51784049   16.30926854   16.40128971   1       9  H
    9.51082918   16.67440903   14.66133140   1      10  H
   10.40832871   18.21255523   15.86870977   2      11  C
   11.61319599   17.68343716   15.48679731   3      12  F
   10.20027380   19.18042134   14.93467710   3      13  F
   10.62309105   18.91715735   17.23070158   2      14  C
   11.49501262   19.56732760   17.11841891   1      15  H
    9.75937238   19.55958406   17.40590640   1      16  H
   10.82771388   18.07009051   18.51252176   2      17  C
   10.82608823   18.92076702   19.55981612   3      18  F
    9.71537986   17.31652983   18.73225671   3      19  F
   12.06760249   17.16291394   18.65934024   2      20  C
   11.75972940   16.18642316   18.30524439   1      21  H
   12.82987429   17.54569524   17.99316561   1      22  H
   12.71434215   16.98306158   20.04230298   2      23  C
   13.20126613   18.19031928   20.46290555   3      24  F
   11.74908390   16.67328310   20.95715424   3      25  F
   13.87361409   15.98619391   20.21198980   2      26  C
   14.52457479   16.07630802   19.33602378   1      27  H
   14.43362593   16.33109460   21.07582745   1      28  H
   13.58690517   14.48549103   20.40266830   2      29  C
   12.33266947   14.22998275   19.94829857   3      30  F
   14.42798498   13.82016082   19.55496428   3      31  F
   13.74085551   13.86776999   21.80989566   2      32  C
   14.73636536   14.19425290   22.16957415   1      33  H
   12.98479266   14.34870707   22.43239901   1      34  H
   13.62719617   12.33327350   22.01830671   2      35  C
   13.48149315   12.15686971   23.36297845   3      36  F
   12.43609375   11.91946310   21.51149012   3      37  F
   14.69060063   11.33981354   21.51159007   2      38  C
   14.17833390   10.37968589   21.43572639   1      39  H
   14.98325841   11.63721272   20.51457971   1      40  H
   15.98439101   11.06849586   22.30902000   2      41  C
   15.69684722   10.08299865   23.19636581   3      42  F
   16.89252115   10.48333457   21.47860893   3      43  F
   16.71635051   12.19269528   23.07613476   2      44  C
   15.95047404   12.72916051   23.62833504   1      45  H
   17.37757676   11.71847818    0.16460277   1      46  H
   17.56301643   13.22189944   22.29882405   2      47  C
   17.15307533   13.18198992   20.99606278   3      48  F
   17.18827100   14.45170133   22.71725266   3      49  F
   19.09190866   13.18495928   22.35006796   2      50  C
   19.40590597   12.31684428   21.78026405   1      51  H
   19.44717425   14.06873298   21.83813227   1      52  H
   19.84635721   13.13905320    0.05253596   2      53  C
   21.01175599   13.82976676   23.53350330   3      54  F
   19.13435121   13.82723613    0.96195962   3      55  F
   20.24638434   11.79055474    0.69072581   2      56  C
   19.56424742   11.02379904    0.30659573   1      57  H
   21.24191601   11.55882595    0.31511172   1      58  H
   20.29983998   11.58482634    2.21664044   2      59  C
   19.15841802   12.09039473    2.76648992   3      60  F
[...]
    7.15273304    9.79322249   12.88934121   4    1268  Ag
   12.92656681    9.79330282   12.88882385   4    1269  Ag
   12.92825141   11.45991150   15.24735950   4    1270  Ag
    7.15207551   11.46023822   15.24696596   4    1271  Ag
   11.48450394   13.96124467   15.24715314   4    1272  Ag
   11.48449497    8.95925065   15.24804714   4    1273  Ag
    8.59535368   13.96105660   15.24720432   4    1274  Ag
    8.59594117    8.95888484   15.24660912   4    1275  Ag
   10.04005503   11.46006600   15.24703670   4    1276  Ag
   10.04006038   13.12767322   17.60525122   4    1277  Ag
   10.04001935    8.12607065   17.60445476   4    1278  Ag
   11.48463553   10.62614248   17.60539586   4    1279  Ag
    8.59675603   10.62698504   17.60423980   4    1280  Ag
   12.92650739   13.12648847   17.60396683   4    1281  Ag
    7.15323960   13.12720550   17.60441556   4    1282  Ag

siesta: Program's energy decomposition (eV):
siesta: Ebs     =    -75968.328872
siesta: Eions   =    528240.072706
siesta: Ena     =     58064.919441
siesta: Ekin    =    270028.594137
siesta: Enl     =    -93452.384498
siesta: DEna    =       238.236126
siesta: DUscf   =       348.759339
siesta: DUext   =         0.000000
siesta: Exc     =    -81888.061274
siesta: eta*DQ  =         0.000000
siesta: Emadel  =         0.000000
siesta: Emeta   =         0.000000
siesta: Emolmec =         0.000000
siesta: Ekinion =         0.000000
siesta: Eharris =   -374900.008736
siesta: Etot    =   -374900.009434
siesta: FreeEng =   -374900.075949

siesta: Final energy (eV):
siesta:  Band Struct. =  -75968.328872
siesta:       Kinetic =  270028.594137
siesta:       Hartree =  178467.885630
siesta:    Ext. field =       0.000000
siesta:   Exch.-corr. =  -81888.061274
siesta:  Ion-electron = -596568.465960
siesta:       Ion-ion = -144939.961968
siesta:       Ekinion =       0.000000
siesta:         Total = -374900.009434

siesta: Atomic forces (eV/Ang):
siesta:      1    0.191334    0.636895   -0.323371
siesta:      2    0.079730   -0.406372   -0.436405
siesta:      3   -0.478780    0.350178    0.074319
siesta:      4    0.310923   -0.795035    0.752384
siesta:      5    0.456440    0.618632   -0.253172
siesta:      6   -0.260304    0.186069   -0.637626
siesta:      7   -0.065319    0.644585    1.174049
siesta:      8    0.090136   -0.555312    0.889319
siesta:      9    0.045025    0.108998   -0.256278
siesta:     10    0.200258   -0.014221   -0.059574
siesta:     11   -0.227599   -0.563162   -0.691456
siesta:     12   -0.067328   -0.308290    0.404142
siesta:     13   -0.298585    0.654586    0.116282
siesta:     14    0.724573   -0.199836   -0.379400
siesta:     15    0.000713   -0.048548    0.083891
siesta:     16   -0.630495    0.252908    0.402007
siesta:     17   -0.237213    0.248541    0.378531
siesta:     18    0.166869    1.171362    0.789422
siesta:     19   -0.563488   -0.815645   -0.346177
siesta:     20    0.162418    0.083621   -0.338429
siesta:     21   -0.079749   -1.076642   -0.429946
siesta:     22    0.671358    0.139119   -0.521960
siesta:     23   -0.447180   -0.071489    0.714809
siesta:     24    0.310240    0.474709   -0.093403
siesta:     25   -0.376261   -0.243798    0.183854
siesta:     26   -0.629188    0.380077   -0.206415
siesta:     27    0.649859   -0.011604   -0.522872
siesta:     28    0.516172    0.720031    0.829874
siesta:     29   -0.508248   -0.471985    0.379629
siesta:     30   -0.703763   -0.198587   -0.106021
siesta:     31    0.732254   -0.784611   -0.588541
siesta:     32    1.418420    0.436706   -1.087243
siesta:     33    0.121761    0.128088    0.259586
siesta:     34   -0.821172    0.319732    0.840567
siesta:     35   -1.093248   -0.034537   -0.039098
siesta:     36    0.446913   -0.000411    1.019358
siesta:     37    0.120691    0.145380   -0.539326
siesta:     38   -0.239744    0.924315    0.115180
siesta:     39   -0.373469   -0.563443   -0.002138
siesta:     40    0.457550    0.358275   -0.922963
siesta:     41    0.974192    1.558107   -0.213979
siesta:     42   -0.934480   -1.274123    2.032681
siesta:     43    0.970529   -0.468850   -1.726946
siesta:     44    0.913787   -0.637539   -0.358511
siesta:     45   -0.684662    0.825337    0.992196
siesta:     46   -0.352400   -0.356679    0.333389
siesta:     47   -0.894371   -1.305723    0.329700
siesta:     48    0.227806   -0.363135   -1.271242
siesta:     49   -0.629357    2.282671    1.209038
siesta:     50    0.071949   -1.716754    0.834225
siesta:     51    0.448657   -1.051693   -0.996312
siesta:     52    0.289243    1.385675   -0.634034
siesta:     53    0.368505   -0.336717    0.007842
siesta:     54    1.102736    0.700648   -0.652052
siesta:     55   -1.661558    1.543315    1.660802
siesta:     56    0.195424   -0.360510   -0.456835
siesta:     57   -0.225311   -0.764151   -0.038810
siesta:     58    0.582615   -0.198521   -0.424438
siesta:     59    0.120286    0.255289    0.127879
siesta:     60   -1.247002    0.957087    0.810243
[...]
siesta:   1268    0.760474    0.185420    0.460117
siesta:   1269   -0.687218    0.556862    0.501038
siesta:   1270   -0.429697    0.472614   -0.206463
siesta:   1271    0.540731    0.024330    0.282243
siesta:   1272   -0.216880   -0.206801    0.059570
siesta:   1273   -0.219043    0.487626   -0.128256
siesta:   1274    0.282344   -0.562579   -0.055015
siesta:   1275   -0.036516    0.521684   -0.100937
siesta:   1276   -0.003878   -0.011070   -0.030939
siesta:   1277    0.098682   -0.105689   -0.451055
siesta:   1278    0.208706    0.738950   -0.442678
siesta:   1279   -0.257210    0.143284   -0.157989
siesta:   1280    0.420578    0.235721   -0.424788
siesta:   1281   -0.690988   -0.485886   -0.833857
siesta:   1282    0.472248   -0.431992   -0.687706
siesta: ----------------------------------------
siesta:    Tot    0.126713   -0.101049    0.062239

siesta: Stress tensor (static) (eV/Ang**3):
siesta:     0.000001   -0.000057    0.002284
siesta:    -0.000057    0.007670    0.000690
siesta:     0.002284    0.000690   -0.005005

siesta: Cell volume =      13041.289483 Ang**3

siesta: Pressure (static):
siesta:                Solid            Molecule  Units
siesta:          -0.00000968          0.00001619  Ry/Bohr**3
siesta:          -0.00088860          0.00148644  eV/Ang**3
siesta:          -1.42371159          2.38156534  kBar
(Free)E+ p_basis*V_orbitals  =     -374624.476420
(Free)Eharris+ p_basis*V_orbitals  =     -374624.475535

Optical: Performing optical calculation:

Optical: Polarization type       = polarized
Optical: Minimum of energy range =   0.0001 Ry
Optical: Maximum of energy range =   7.3498 Ry
Optical: Gaussian broadening     =   0.0037 Ry
Optical: Scissor operator        =   0.0000 Ry
Optical: Number of bands         =    13386
Optical: BZ mesh dimensions      =    1   1   1

Optical: electric field direction
Optical:      0.00000     0.00000     1.00000

Optical: Checking f-sum rule  0.880065
Optical: For insulators and closed shell systems
Optical: this number should be close to 1 if an enough
Optical: number of unoccupied bands have been included

elaps:  Routine       Calls   Time/call    Tot.time        %
elaps:  siesta            1   37059.937   37059.937   100.00
elaps:  Setup             1       3.912       3.912     0.01
elaps:  bands             1       0.000       0.000     0.00
elaps:  writewave         1       0.001       0.001     0.00
elaps:  KSV_init          1       0.000       0.000     0.00
elaps:  IterMD            2    7640.036   15280.071    41.23
elaps:  hsparse           2       0.529       1.059     0.00
elaps:  overlap           2       0.669       1.339     0.00
elaps:  IterSCF         115     132.214   15204.569    41.03
elaps:  kinefsm           4       0.368       1.472     0.00
elaps:  nlefsm            4       2.651      10.605     0.03
elaps:  DHSCF           117      14.159    1656.601     4.47
elaps:  DHSCF1            1       0.717       0.717     0.00
elaps:  DHSCF2            2      14.979      29.958     0.08
elaps:  REORD           706       0.001       0.974     0.00
elaps:  POISON          119       0.367      43.687     0.12
elaps:  DHSCF3          117      13.761    1609.998     4.34
elaps:  rhoofd          117       5.413     633.368     1.71
elaps:  cellXC          117       1.116     130.583     0.35
elaps:  vmat            117       5.660     662.164     1.79
elaps:  MolMec            4       0.002       0.007     0.00
elaps:  diagon          115     103.734   11929.390    32.19
elaps:  r-eigvec        115     100.453   11552.101    31.17
elaps:  r-buildHS       115       0.011       1.267     0.00
elaps:  rdiag           116     100.471   11654.629    31.45
elaps:  rdiag1          116       3.358     389.505     1.05
elaps:  rdiag2          116      24.666    2861.210     7.72
elaps:  rdiag3          116      64.932    7532.072    20.32
elaps:  rdiag4          116       7.179     832.816     2.25
elaps:  r-buildD        115       3.273     376.430     1.02
elaps:  DHSCF4            2       7.813      15.626     0.04
elaps:  dfscf             2       6.906      13.813     0.04
elaps:  overfsm           2       0.079       0.158     0.00
elaps:  optical           1   21774.688   21774.688    58.76
elaps:  phirphiopt        1      17.362      17.362     0.05
elaps:  transrate         1   21649.702   21649.702    58.42

>> End of run:  26-APR-2012  15:39:08