>> Start of run:  30-AUG-2014   7:15:07

reinit: Reading from standard input
************************** Dump of input data file ****************************
SystemName      optical
SystemLabel     optical
NumberOfAtoms   1282
NumberOfSpecies 4
MD.TypeOfRun    CG
MD.NumCGsteps   1
MD.ConstantVolume  .true.
SolutionMethod  diagon
XC.functional   GGA
XC.authors      PBE
PAO.BasisSize   DZP
DM.NumberPulay  7
DM.MixingWeight 0.1
DirectPhi       .true.
MeshCutoff      500 Ry
MaxSCFiterations 200
UseSaveData     .true.
WriteMullikenPop 1
PAO.EnergyShift 0.001 Ry
WriteDM.NetCDF .false.
WriteDMHS.NetCDF .false.
%block ChemicalSpeciesLabel
 1   1   H
 2   6   C
 3   9   F
 4  47   Ag
%endblock ChemicalSpeciesLabel
LatticeConstant 1.0 Ang
%block LatticeParameters
  22.534   24.472   23.649   90.0 90.0 90.0
%endblock LatticeParameters
AtomicCoordinatesFormat Ang
%block AtomicCoordinatesAndAtomicSpecies < struct.coor
%endblock AtomicCoordinatesAndAtomicSpecies
************************** End of input data file *****************************

reinit: -----------------------------------------------------------------------
reinit: System Name: optical
reinit: -----------------------------------------------------------------------
reinit: System Label: optical
reinit: -----------------------------------------------------------------------

initatom: Reading input for the pseudopotentials and atomic orbitals ----------
 Species number:            1  Label: H Atomic number:           1
 Species number:            2  Label: C Atomic number:           6
 Species number:            3  Label: F Atomic number:           9
 Species number:            4  Label: Ag Atomic number:          47
Ground state valence configuration:   1s01
Reading pseudopotential information in formatted form from H.psf

Valence configuration for pseudopotential generation:
1s( 1.00) rc: 1.33
2p( 0.00) rc: 1.33
3d( 0.00) rc: 0.37
4f( 0.00) rc: 1.33
Ground state valence configuration:   2s02  2p02
Reading pseudopotential information in formatted form from C.psf

Valence configuration for pseudopotential generation:
2s( 2.00) rc: 1.56
2p( 2.00) rc: 1.56
3d( 0.00) rc: 1.56
4f( 0.00) rc: 1.56
Ground state valence configuration:   2s02  2p05
Reading pseudopotential information in formatted form from F.psf

Valence configuration for pseudopotential generation:
2s( 2.00) rc: 1.41
2p( 5.00) rc: 1.41
3d( 0.00) rc: 1.41
4f( 0.00) rc: 1.41
Ground state valence configuration:   5s01  4d10
Reading pseudopotential information in formatted form from Ag.psf

Valence configuration for pseudopotential generation:
5s( 1.00) rc: 2.52
5p( 0.00) rc: 2.72
4d(10.00) rc: 2.52
4f( 0.00) rc: 2.52
For H, standard SIESTA heuristics set lmxkb to 2
 (one more than the basis l, including polarization orbitals).
Use PS.lmax or PS.KBprojectors blocks to override.
For C, standard SIESTA heuristics set lmxkb to 3
 (one more than the basis l, including polarization orbitals).
Use PS.lmax or PS.KBprojectors blocks to override.
For F, standard SIESTA heuristics set lmxkb to 3
 (one more than the basis l, including polarization orbitals).
Use PS.lmax or PS.KBprojectors blocks to override.
For Ag, standard SIESTA heuristics set lmxkb to 3
 (one more than the basis l, including polarization orbitals).
Use PS.lmax or PS.KBprojectors blocks to override.

<basis_specs>
H                    Z=   1    Mass=  1.0100        Charge= 0.17977+309
Lmxo=0 Lmxkb= 2    BasisType=split      Semic=F
L=0  Nsemic=0  Cnfigmx=1
          n=1  nzeta=2  polorb=1
            splnorm:   0.15000
               vcte:    0.0000
               rinn:    0.0000
                rcs:    0.0000      0.0000
            lambdas:   1.00000     1.00000
L=0  Nkbl=1  erefs: 0.17977+309
L=1  Nkbl=1  erefs: 0.17977+309
L=2  Nkbl=1  erefs: 0.17977+309
</basis_specs>

atom: Called for H                     (Z =   1)

read_vps: Pseudopotential generation method:
read_vps: ATM 3.2.2 Troullier-Martins
Total valence charge:    1.00000

xc_check: Exchange-correlation functional:
xc_check: GGA Perdew, Burke & Ernzerhof 1996
V l=0 = -2*Zval/r beyond r=  1.2656
V l=1 = -2*Zval/r beyond r=  1.2498
V l=2 = -2*Zval/r beyond r=  0.3563
All V_l potentials equal beyond r=  1.2656
This should be close to max(r_c) in ps generation
All pots = -2*Zval/r beyond r=  1.2656

VLOCAL1: 99.0% of the norm of Vloc inside     27.100 Ry
VLOCAL1: 99.9% of the norm of Vloc inside     61.762 Ry
atom: Maximum radius for 4*pi*r*r*local-pseudopot. charge    1.48935
atom: Maximum radius for r*vlocal+2*Zval:    1.24984
GHOST: No ghost state for L =  0
GHOST: No ghost state for L =  1
GHOST: No ghost state for L =  2

KBgen: Kleinman-Bylander projectors:
   l= 0   rc=  1.398961   el= -0.477209   Ekb= -2.001853   kbcos= -0.352188
   l= 1   rc=  1.470814   el=  0.001006   Ekb= -0.423408   kbcos= -0.024395
   l= 2   rc=  1.489346   el=  0.001895   Ekb= -0.481957   kbcos= -0.001574

KBgen: Total number of  Kleinman-Bylander projectors:    9
atom: -------------------------------------------------------------------------

atom: SANKEY-TYPE ORBITALS:
atom: Selected multiple-zeta basis: split

SPLIT: Orbitals with angular momentum L= 0

SPLIT: Basis orbitals for state 1s

SPLIT: PAO cut-off radius determined from an
SPLIT: energy shift=  0.001000 Ry

   izeta = 1
                 lambda =    1.000000
                     rc =    7.026209
                 energy =   -0.476258
                kinetic =    0.873901
    potential(screened) =   -1.350160
       potential(ionic) =   -1.868508

   izeta = 2
                 rmatch =    4.103729
              splitnorm =    0.150000
                 energy =   -0.388153
                kinetic =    1.411813
    potential(screened) =   -1.799966
       potential(ionic) =   -2.346436

POLgen: Perturbative polarization orbital with L=  1

POLgen: Polarization orbital for state 1s

   izeta = 1
                     rc =    7.026209
                 energy =    0.513491
                kinetic =    1.100165
    potential(screened) =   -0.586674
       potential(ionic) =   -1.048593
atom: Total number of Sankey-type orbitals:  5

atm_pop: Valence configuration (for local Pseudopot. screening):
 1s( 1.00)
Vna: chval, zval:    1.00000   1.00000

Vna:  Cut-off radius for the neutral-atom potential:   7.026209

atom: _________________________________________________________________________

<basis_specs>
C                    Z=   6    Mass=  12.010        Charge= 0.17977+309
Lmxo=1 Lmxkb= 3    BasisType=split      Semic=F
L=0  Nsemic=0  Cnfigmx=2
          n=1  nzeta=2  polorb=0
            splnorm:   0.15000
               vcte:    0.0000
               rinn:    0.0000
                rcs:    0.0000      0.0000
            lambdas:   1.00000     1.00000
L=1  Nsemic=0  Cnfigmx=2
          n=1  nzeta=2  polorb=1
            splnorm:   0.15000
               vcte:    0.0000
               rinn:    0.0000
                rcs:    0.0000      0.0000
            lambdas:   1.00000     1.00000
L=0  Nkbl=1  erefs: 0.17977+309
L=1  Nkbl=1  erefs: 0.17977+309
L=2  Nkbl=1  erefs: 0.17977+309
L=3  Nkbl=1  erefs: 0.17977+309
</basis_specs>

[...]

SPLIT: Basis orbitals for state 2p

[...]

POLgen: Polarization orbital for state 2p

[...]

atm_pop: Valence configuration (for local Pseudopot. screening):
 2s( 2.00)
 2p( 2.00)
Vna: chval, zval:    4.00000   4.00000

[...]

SPLIT: Basis orbitals for state 2p

[...]

POLgen: Polarization orbital for state 2p

[...]

atm_pop: Valence configuration (for local Pseudopot. screening):
 2s( 2.00)
 2p( 5.00)
Vna: chval, zval:    7.00000   7.00000

[...]

<basis_specs>
Ag                   Z=  47    Mass=  107.87        Charge= 0.17977+309
Lmxo=2 Lmxkb= 3    BasisType=split      Semic=F
L=0  Nsemic=0  Cnfigmx=5
          n=1  nzeta=2  polorb=1
            splnorm:   0.15000
               vcte:    0.0000
               rinn:    0.0000
                rcs:    0.0000      0.0000
            lambdas:   1.00000     1.00000
L=1  Nsemic=0  Cnfigmx=5
L=2  Nsemic=0  Cnfigmx=4
          n=1  nzeta=2  polorb=0
            splnorm:   0.15000
               vcte:    0.0000
               rinn:    0.0000
                rcs:    0.0000      0.0000
            lambdas:   1.00000     1.00000
L=0  Nkbl=1  erefs: 0.17977+309
L=1  Nkbl=1  erefs: 0.17977+309
L=2  Nkbl=1  erefs: 0.17977+309
L=3  Nkbl=1  erefs: 0.17977+309
</basis_specs>

atom: Called for Ag                    (Z =  47)

read_vps: Pseudopotential generation method:
read_vps: ATM 3.2.2 Troullier-Martins
Total valence charge:   11.00000

xc_check: Exchange-correlation functional:
xc_check: GGA Perdew, Burke & Ernzerhof 1996
V l=0 = -2*Zval/r beyond r=  2.4592
V l=1 = -2*Zval/r beyond r=  2.6507
V l=2 = -2*Zval/r beyond r=  2.4592
V l=3 = -2*Zval/r beyond r=  2.4592
All V_l potentials equal beyond r=  2.6507
This should be close to max(r_c) in ps generation
All pots = -2*Zval/r beyond r=  2.6507

VLOCAL1: 99.0% of the norm of Vloc inside      6.178 Ry
VLOCAL1: 99.9% of the norm of Vloc inside     14.079 Ry
atom: Maximum radius for 4*pi*r*r*local-pseudopot. charge    3.19739
atom: Maximum radius for r*vlocal+2*Zval:    2.82168
GHOST: No ghost state for L =  0
GHOST: No ghost state for L =  1
GHOST: No ghost state for L =  2
GHOST: No ghost state for L =  3

KBgen: Kleinman-Bylander projectors:
   l= 0   rc=  2.966357   el= -0.323666   Ekb=  3.565490   kbcos=  0.247453
   l= 1   rc=  3.003670   el= -0.054265   Ekb=  1.619308   kbcos=  0.223076
   l= 2   rc=  2.786631   el= -0.547066   Ekb= -7.840816   kbcos= -0.714112
   l= 3   rc=  3.079709   el=  0.002953   Ekb= -2.732950   kbcos= -0.012571

KBgen: Total number of  Kleinman-Bylander projectors:   16
atom: -------------------------------------------------------------------------

atom: SANKEY-TYPE ORBITALS:
atom: Selected multiple-zeta basis: split

[...]

SPLIT: Basis orbitals for state 5s

[...]

SPLIT: Orbitals with angular momentum L= 2

SPLIT: Basis orbitals for state 4d

SPLIT: PAO cut-off radius determined from an
SPLIT: energy shift=  0.001000 Ry

   izeta = 1
                 lambda =    1.000000
                     rc =    5.899358
                 energy =   -0.546288
                kinetic =    5.940648
    potential(screened) =   -6.486936
       potential(ionic) =  -18.280755

   izeta = 2
                 rmatch =    2.650723
              splitnorm =    0.150000
                 energy =   -0.238526
                kinetic =    8.222011
    potential(screened) =   -8.460537
       potential(ionic) =  -21.296963

POLgen: Perturbative polarization orbital with L=  1

POLgen: Polarization orbital for state 5s

   izeta = 1
                     rc =    9.486283
                 energy =   -0.053026
                kinetic =    0.478302
    potential(screened) =   -0.531328
       potential(ionic) =   -7.012902
atom: Total number of Sankey-type orbitals: 15

atm_pop: Valence configuration (for local Pseudopot. screening):
 5s( 1.00)
 5p( 0.00)
 4d(10.00)
Vna: chval, zval:   11.00000  11.00000

Vna:  Cut-off radius for the neutral-atom potential:   9.486283

atom: _________________________________________________________________________

[...]
              0.010   0.010   0.009   0.008   0.212   0.160   0.207
1252 10.971   0.047   0.666   1.964   1.963   1.952   1.971   1.960   0.006
              0.011   0.012   0.008   0.002   0.181   0.114   0.116
1253 11.072   0.223   0.648   1.965   1.965   1.955   1.973   1.957   0.006
              0.009   0.008   0.007   0.004   0.154   0.095   0.102
1254 11.105   0.337   0.566   1.961   1.976   1.956   1.961   1.960   0.005
              0.005   0.010   0.010   0.004   0.097   0.089   0.167
1255 10.917  -0.156   0.849   1.955   1.963   1.958   1.970   1.963   0.007
              0.010   0.007   0.010   0.008   0.132   0.104   0.138
1256 10.977   0.051   0.660   1.960   1.974   1.955   1.961   1.966   0.009
              0.011   0.012   0.009   0.004   0.119   0.110   0.176
1257 10.955  -0.065   0.778   1.960   1.962   1.957   1.969   1.964   0.004
              0.007   0.008   0.009   0.006   0.151   0.105   0.140
1258 10.835  -0.388   0.896   1.955   1.963   1.960   1.961   1.953   0.005
              0.009   0.012   0.007   0.007   0.151   0.128   0.215
1259 10.940  -0.007   0.782   1.960   1.975   1.956   1.964   1.964   0.004
              0.011   0.007   0.002   0.010   0.107   0.093   0.113
1260 11.061   0.069   0.658   1.947   1.957   1.955   1.956   1.949   0.010
              0.011   0.016   0.014   0.007   0.187   0.140   0.185
1261 10.898  -0.357   0.905   1.946   1.960   1.960   1.961   1.951   0.009
              0.010   0.010   0.011   0.010   0.198   0.145   0.179
1262 10.982   0.157   0.700   1.972   1.968   1.961   1.976   1.964   0.005
              0.005   0.004   0.003   0.005   0.096   0.067   0.097
1263 10.855  -0.258   0.939   1.973   1.966   1.958   1.974   1.965  -0.001
              0.007   0.003   0.006   0.004   0.115   0.086   0.118
1264 11.048  -0.052   0.807   1.942   1.960   1.951   1.957   1.947   0.012
              0.009   0.009   0.010   0.011   0.185   0.131   0.169
1265 10.893  -0.412   0.998   1.949   1.959   1.955   1.962   1.951   0.007
              0.008   0.009   0.009   0.009   0.203   0.128   0.158
1266 11.007  -0.184   0.878   1.951   1.958   1.955   1.961   1.942   0.010
              0.011   0.008   0.008   0.010   0.169   0.138   0.192
1267 10.877  -0.066   0.724   1.960   1.973   1.963   1.962   1.969   0.010
              0.009   0.007   0.010   0.011   0.101   0.105   0.140
1268 10.920   0.018   0.697   1.969   1.969   1.966   1.976   1.967   0.009
              0.009   0.007   0.006   0.004   0.108   0.104   0.112
1269 10.810  -0.296   0.863   1.969   1.965   1.963   1.973   1.965   0.006
              0.007   0.010   0.010   0.009   0.131   0.121   0.113
1270 11.039  -0.100   0.827   1.962   1.939   1.939   1.962   1.945   0.010
              0.015   0.012   0.008   0.013   0.193   0.197   0.116
1271 10.915  -0.316   0.934   1.960   1.946   1.947   1.963   1.956   0.013
              0.011   0.006   0.007   0.008   0.173   0.195   0.115
1272 11.203   0.398   0.524   1.952   1.959   1.941   1.948   1.954   0.011
              0.008   0.011   0.012   0.011   0.117   0.186   0.171
1273 10.955  -0.314   0.969   1.952   1.961   1.943   1.951   1.959   0.009
              0.009   0.006   0.011   0.007   0.139   0.180   0.172
1274 10.894  -0.369   0.959   1.954   1.957   1.942   1.949   1.961   0.008
              0.011   0.010   0.010   0.010   0.128   0.207   0.156
1275 11.132   0.144   0.663   1.951   1.957   1.942   1.947   1.959   0.012
              0.010   0.012   0.012   0.011   0.142   0.193   0.177
1276 10.761  -0.717   1.080   1.969   1.975   1.966   1.974   1.969  -0.007
             -0.007  -0.007  -0.007  -0.007   0.193   0.193   0.194
1277 11.099   0.120   0.677   1.951   1.956   1.954   1.960   1.946   0.010
              0.013   0.009   0.008   0.010   0.161   0.140   0.186
1278 10.905  -0.053   0.760   1.958   1.970   1.966   1.962   1.973   0.007
              0.005   0.007   0.008   0.011   0.110   0.116   0.104
1279 11.052   0.018   0.741   1.944   1.956   1.952   1.954   1.948   0.012
              0.011   0.012   0.013   0.011   0.173   0.142   0.167
1280 11.042   0.017   0.709   1.948   1.956   1.953   1.958   1.949   0.008
              0.012   0.010   0.010   0.008   0.188   0.148   0.167
1281 10.961   0.080   0.660   1.967   1.961   1.965   1.970   1.963   0.011
              0.012   0.009   0.005   0.010   0.116   0.121   0.112
1282 10.929   0.026   0.714   1.971   1.968   1.964   1.971   1.967   0.005
              0.006   0.009   0.012   0.004   0.100   0.110   0.101

mulliken: Qtot =     5346.000

outcoor: Final (unrelaxed) atomic coordinates (Ang):
   13.82891523   20.13723588   17.80178826   2       1  C
   12.86288543   19.69868540   18.08667223   1       2  H
   13.65405759   21.10111614   17.30730824   1       3  H
   14.42792623   20.29983513   18.70504457   1       4  H
   14.58916362   19.21493787   16.84697329   2       5  C
   13.84428999   19.01860459   15.70682752   3       6  F
   15.69200553   19.92981920   16.42196385   3       7  F
   15.11949904   17.85489009   17.33543509   2       8  C
   15.61090555   17.39252899   16.46768754   1       9  H
   15.90516015   18.03704870   18.08252795   1      10  H
   14.14057182   16.80238747   17.90706190   2      11  C
   13.02947227   16.82242750   17.11644915   3      12  F
   14.69546999   15.55969440   17.68176694   3      13  F
   13.72730914   16.85639276   19.39264301   2      14  C
   14.51108402   16.37174527   19.98106777   1      15  H
   13.71968841   17.91890736   19.66950157   1      16  H
   12.38361287   16.24910706   19.85437415   2      17  C
   11.43775942   17.24098387   19.73179273   3      18  F
   11.99968760   15.28423046   18.94983973   3      19  F
   12.20551322   15.63625523   21.25956808   2      20  C
   12.35964672   16.44729720   21.97717279   1      21  H
   11.16551546   15.31203301   21.35098326   1      22  H
   13.06210426   14.46826492   21.75265530   2      23  C
   14.28383791   14.98688126   22.09657828   3      24  F
   12.51285830   14.03950262   22.93848552   3      25  F
   13.29674306   13.23761797   20.86141638   2      26  C
   12.33101155   12.75049802   20.70649983   1      27  H
   13.62993961   13.62837085   19.89523740   1      28  H
   14.30040428   12.13748660   21.26712215   2      29  C
   13.97313635   11.73546706   22.53226320   3      30  F
   14.03203436   11.03275307   20.50502953   3      31  F
   15.81311258   12.38661604   21.24132277   2      32  C
   16.03672770   13.01632589   22.11008591   1      33  H
   16.29751742   11.42356023   21.42692221   1      34  H
   16.49582145   13.01768718   20.01905494   2      35  C
   16.25096246   14.37244985   20.10755275   3      36  F
   17.85302506   12.93865316   20.18982095   3      37  F
   16.13824547   12.59709558   18.58088687   2      38  C
   15.08825249   12.28927596   18.57292452   1      39  H
   16.21512116   13.49473955   17.95397034   1      40  H
   16.90907952   11.48943251   17.84934535   2      41  C
   17.91858841   12.09912756   17.14255717   3      42  F
   17.60017242   10.73859913   18.76940093   3      43  F
   16.19921072   10.54943062   16.86105352   2      44  C
   15.50823026   11.15442515   16.24782915   1      45  H
   16.97721657   10.15579191   16.19160436   1      46  H
   15.39128056    9.35399644   17.38452016   2      47  C
   14.35862696    9.82916459   18.14864682   3      48  F
   14.74691284    8.81438703   16.29509915   3      49  F
   16.10439562    8.20717399   18.12597809   2      50  C
   15.86025752    7.30715878   17.55681621   1      51  H
   17.17187484    8.38660815   18.03065030   1      52  H
   15.80449855    7.89674512   19.60506274   2      53  C
   16.01694615    9.03838384   20.32141802   3      54  F
   14.46123033    7.63041274   19.72052886   3      55  F
   16.57214704    6.75951157   20.32039854   2      56  C
   16.86463360    6.03974978   19.55238154   1      57  H
   17.49706802    7.19678207   20.72151089   1      58  H
   15.92037474    5.94406227   21.45860314   2      59  C
   15.46388302    6.83816553   22.38459609   3      60  F
[...]
    7.15598682    9.79268690   12.89127096   4    1268  Ag
   12.92613864    9.79675676   12.89173155   4    1269  Ag
   12.93036414   11.46032558   15.24692020   4    1270  Ag
    7.15275931   11.45880692   15.24874963   4    1271  Ag
   11.48689965   13.96302821   15.24693288   4    1272  Ag
   11.48340699    8.96002055   15.24565070   4    1273  Ag
    8.59648880   13.96095744   15.24615928   4    1274  Ag
    8.59503196    8.95640213   15.24653295   4    1275  Ag
   10.03989795   11.45978986   15.24714690   4    1276  Ag
   10.04012500   13.12800521   17.60739670   4    1277  Ag
   10.03724966    8.12899860   17.60345106   4    1278  Ag
   11.48518579   10.62673461   17.60717682   4    1279  Ag
    8.59831447   10.62781513   17.60550688   4    1280  Ag
   12.92672604   13.12567957   17.60195975   4    1281  Ag
    7.15351290   13.12598891   17.60318717   4    1282  Ag

siesta: Program's energy decomposition (eV):
siesta: Ebs     =    -85120.478760
siesta: Eions   =    528240.073050
siesta: Ena     =     62922.749090
siesta: Ekin    =    267303.694171
siesta: Enl     =    -92604.856049
siesta: DEna    =     -3731.994150
siesta: DUscf   =       458.253406
siesta: DUext   =         0.000000
siesta: Exc     =    -81394.081591
siesta: eta*DQ  =         0.000000
siesta: Emadel  =         0.000000
siesta: Emeta   =         0.000000
siesta: Emolmec =         0.000000
siesta: Ekinion =         0.000000
siesta: Eharris =   -375286.293325
siesta: Etot    =   -375286.308173
siesta: FreeEng =   -375286.372364

siesta: Final energy (eV):
siesta:  Band Struct. =  -85120.478760
siesta:       Kinetic =  267303.694171
siesta:       Hartree =  178612.458315
siesta:    Ext. field =       0.000000
siesta:   Exch.-corr. =  -81394.081591
siesta:  Ion-electron = -603928.689729
siesta:       Ion-ion = -135879.689340
siesta:       Ekinion =       0.000000
siesta:         Total = -375286.308173

siesta: Atomic forces (eV/Ang):
siesta:      1    0.258800   -1.058962   -0.284819
siesta:      2   -0.487695   -0.214084    0.103651
siesta:      3   -0.132696    0.551846   -0.385176
siesta:      4    0.438843    0.117279    0.598877
siesta:      5   -0.954450   -0.001154    1.350237
siesta:      6   -0.684405   -0.207119   -0.862845
siesta:      7    1.454355    0.509585   -0.414044
siesta:      8   -0.194894    0.099555    1.042431
siesta:      9    0.240494   -0.336719   -0.588552
siesta:     10    0.364771    0.174784    0.274819
siesta:     11   -0.287957    0.843079    0.243776
siesta:     12   -1.569324    0.226411   -0.966545
siesta:     13    0.956691   -1.325611   -0.172130
siesta:     14    0.240845    0.358751    0.419792
siesta:     15    0.811553   -0.181824    0.314745
siesta:     16   -0.054036    0.476554    0.421138
siesta:     17    0.890963   -0.405867   -0.038406
siesta:     18   -1.047384    1.005173    0.140854
siesta:     19   -0.499043   -1.014590   -0.766705
siesta:     20    0.474536    0.174385   -0.623759
siesta:     21    0.104930    0.480222    0.630557
siesta:     22   -0.943681   -0.119361   -0.186909
siesta:     23    0.255183   -0.797907   -0.801863
siesta:     24    1.770530    0.715493    0.380492
siesta:     25   -0.762283   -0.194698    1.064014
siesta:     26    0.466749    0.640226    0.128591
siesta:     27   -0.844682   -0.503140   -0.225401
siesta:     28    0.140842    0.212984   -0.909601
siesta:     29    0.008645    1.282446   -0.074801
siesta:     30   -0.097540   -0.188309    1.634263
siesta:     31   -0.295362   -0.826063   -1.331225
siesta:     32   -0.093993   -0.068336   -0.469775
siesta:     33    0.270001    0.492936    0.428760
siesta:     34    0.209761   -0.831698    0.135182
siesta:     35   -0.676381   -0.539010   -0.143431
siesta:     36   -0.619673    1.521730   -0.252040
siesta:     37    1.431369   -0.359649    0.436953
siesta:     38   -0.449324   -0.540263   -0.045878
siesta:     39   -0.934065   -0.118479   -0.017188
siesta:     40    0.012894    0.536329   -0.284782
siesta:     41   -0.423854   -0.257738    0.663147
siesta:     42    1.084197    0.893505   -1.241801
siesta:     43    0.465948   -1.282776    1.107832
siesta:     44    0.040062    0.078415    0.423677
siesta:     45   -0.420319    0.206990   -0.321334
siesta:     46    0.478409   -0.177841   -0.344017
siesta:     47   -0.190835    0.563091    0.983097
siesta:     48   -0.666551    0.645008    1.032549
siesta:     49    0.050090   -0.675570   -1.144486
siesta:     50    0.398961   -0.577137    0.150086
siesta:     51    0.047631   -0.612295   -0.347225
siesta:     52    1.074306   -0.078284   -0.048760
siesta:     53   -0.277069    0.009036    0.084024
siesta:     54    0.281143    1.382271    0.970720
siesta:     55   -1.475277   -0.224693   -0.075951
siesta:     56    0.775608   -0.909904   -0.681113
siesta:     57    0.291467   -0.421357   -0.318275
siesta:     58    0.479366    0.274687    0.064098
siesta:     59    0.386606    0.495008   -0.610666
siesta:     60   -0.116813    1.352801    1.550791
[...]
siesta:   1268    0.821621    0.110161    0.538349
siesta:   1269   -0.469958    0.784896    0.613256
siesta:   1270    0.226684    0.055078   -0.011955
siesta:   1271    0.288911   -0.193553    0.290613
siesta:   1272    0.314398    0.171279   -0.011151
siesta:   1273   -0.261419    0.329841   -0.219116
siesta:   1274    0.245097   -0.168679   -0.136434
siesta:   1275    0.004848   -0.266933   -0.076707
siesta:   1276   -0.012334   -0.032862    0.025776
siesta:   1277    0.022423    0.002530    0.230886
siesta:   1278   -0.448840    0.817573   -0.422121
siesta:   1279    0.032881    0.122795    0.194623
siesta:   1280    0.544005    0.297676   -0.076466
siesta:   1281   -0.373219   -0.382936   -0.670687
siesta:   1282    0.412766   -0.332570   -0.464705
siesta: ----------------------------------------
siesta:    Tot   -0.028986   -0.014303   -0.030723

siesta: Stress tensor (static) (eV/Ang**3):
siesta:    -0.036145   -0.000167    0.001389
siesta:    -0.000167   -0.030322   -0.000028
siesta:     0.001389   -0.000028   -0.038772

siesta: Cell volume =      13041.289483 Ang**3

siesta: Pressure (static):
siesta:                Solid            Molecule  Units
siesta:           0.00038206          0.00047944  Ry/Bohr**3
siesta:           0.03507981          0.04402088  eV/Ang**3
siesta:          56.20465144         70.52998578  kBar
(Free)E+ p_basis*V_orbitals  =     -374501.660746
(Free)Eharris+ p_basis*V_orbitals  =     -374501.648957

elaps:  Routine       Calls   Time/call    Tot.time        %
elaps:  siesta            1    5868.049    5868.049   100.00
elaps:  Setup             1       1.387       1.387     0.02
elaps:  bands             1       0.000       0.000     0.00
elaps:  writewave         1       0.001       0.001     0.00
elaps:  KSV_init          1       0.000       0.000     0.00
elaps:  IterMD            2    2933.088    5866.176    99.97
elaps:  hsparse           2       1.786       3.572     0.06
elaps:  overlap           2       0.935       1.870     0.03
elaps:  IterSCF          33     170.069    5612.275    95.64
elaps:  kinefsm           4       0.591       2.365     0.04
elaps:  nlefsm            4       7.701      30.802     0.52
elaps:  DHSCF            35      80.312    2810.929    47.90
elaps:  DHSCF1            1       1.018       1.018     0.02
elaps:  DHSCF2            2      50.523     101.046     1.72
elaps:  REORD           214       0.002       0.331     0.01
elaps:  POISON           37       0.332      12.289     0.21
elaps:  DHSCF3           35      75.313    2635.957    44.92
elaps:  rhoofd           35      34.013    1190.443    20.29
elaps:  cellXC           35       1.126      39.395     0.67
elaps:  vmat             35      35.982    1259.374    21.46
elaps:  MolMec            4       0.002       0.007     0.00
elaps:  diagon           33      88.291    2913.598    49.65
elaps:  r-eigvec         33      81.584    2692.261    45.88
elaps:  r-buildHS        33       0.020       0.662     0.01
elaps:  rdiag            33      81.564    2691.599    45.87
elaps:  rdiag1           33       2.759      91.047     1.55
elaps:  rdiag2           33      17.546     579.015     9.87
elaps:  rdiag3           33      54.114    1785.777    30.43
elaps:  rdiag4           33       5.606     184.985     3.15
elaps:  r-buildD         33       6.698     221.034     3.77
elaps:  DHSCF4            2      36.391      72.781     1.24
elaps:  dfscf             2      33.513      67.027     1.14
elaps:  overfsm           2       0.247       0.494     0.01
elaps:  optical           1       0.000       0.000     0.00

>> End of run:  30-AUG-2014   8:52:55