>> Start of run:  24-APR-2012  16:00:51

reinit: Reading from standard input
************************** Dump of input data file ****************************
SystemName      optical
SystemLabel     optical
NumberOfAtoms   1282
NumberOfSpecies 4
MD.TypeOfRun    CG
MD.NumCGsteps   0
MD.ConstantVolume  .true.
SolutionMethod  diagon
XC.functional   GGA
XC.authors      PBE
PAO.BasisSize   DZP
DM.NumberPulay  7
DM.MixingWeight 0.1
DirectPhi       .true.
MeshCutoff      500 Ry
MaxSCFiterations 200
UseSaveData     .true.
WriteMullikenPop 1
OpticalCalculation      .true.
%block Optical.Mesh
 1 1 1
%endblock Optical.Mesh
Optical.PolarizationType  polarized
%block Optical.Vector
 0.0 0.0 1.0
%endblock Optical.Vector
Optical.Broaden         0.05 eV
Optical.EnergyMinimum   0.001 eV
Optical.EnergyMaximum   100.0 eV
%block ChemicalSpeciesLabel
 1   1   H
 2   6   C
 3   9   F
 4  47   Ag
%endblock ChemicalSpeciesLabel
LatticeConstant 1.0 Ang
%block LatticeParameters
  22.534   24.472   23.649   90.0 90.0 90.0
%endblock LatticeParameters
AtomicCoordinatesFormat Ang
%block AtomicCoordinatesAndAtomicSpecies < struct.coor
%endblock AtomicCoordinatesAndAtomicSpecies
************************** End of input data file *****************************

reinit: -----------------------------------------------------------------------
reinit: System Name: optical
reinit: -----------------------------------------------------------------------
reinit: System Label: optical
reinit: -----------------------------------------------------------------------

initatom: Reading input for the pseudopotentials and atomic orbitals ----------
 Species number:            1  Label: H Atomic number:           1
 Species number:            2  Label: C Atomic number:           6
 Species number:            3  Label: F Atomic number:           9
 Species number:            4  Label: Ag Atomic number:          47
Ground state valence configuration:   1s01
Reading pseudopotential information in formatted form from H.psf

Valence configuration for pseudopotential generation:
1s( 1.00) rc: 1.33
2p( 0.00) rc: 1.33
3d( 0.00) rc: 0.37
4f( 0.00) rc: 1.33
Ground state valence configuration:   2s02  2p02
Reading pseudopotential information in formatted form from C.psf

Valence configuration for pseudopotential generation:
2s( 2.00) rc: 1.56
2p( 2.00) rc: 1.56
3d( 0.00) rc: 1.56
4f( 0.00) rc: 1.56
Ground state valence configuration:   2s02  2p05
Reading pseudopotential information in formatted form from F.psf

Valence configuration for pseudopotential generation:
2s( 2.00) rc: 1.41
2p( 5.00) rc: 1.41
3d( 0.00) rc: 1.41
4f( 0.00) rc: 1.41
Ground state valence configuration:   5s01  4d10
Reading pseudopotential information in formatted form from Ag.psf

Valence configuration for pseudopotential generation:
5s( 1.00) rc: 2.52
5p( 0.00) rc: 2.72
4d(10.00) rc: 2.52
4f( 0.00) rc: 2.52
For H, standard SIESTA heuristics set lmxkb to 2
 (one more than the basis l, including polarization orbitals).
Use PS.lmax or PS.KBprojectors blocks to override.
For C, standard SIESTA heuristics set lmxkb to 3
 (one more than the basis l, including polarization orbitals).
Use PS.lmax or PS.KBprojectors blocks to override.
For F, standard SIESTA heuristics set lmxkb to 3
 (one more than the basis l, including polarization orbitals).
Use PS.lmax or PS.KBprojectors blocks to override.
For Ag, standard SIESTA heuristics set lmxkb to 3
 (one more than the basis l, including polarization orbitals).
Use PS.lmax or PS.KBprojectors blocks to override.

<basis_specs>
H                    Z=   1    Mass=  1.0100        Charge= 0.17977+309
Lmxo=0 Lmxkb= 2    BasisType=split      Semic=F
L=0  Nsemic=0  Cnfigmx=1
          n=1  nzeta=2  polorb=1
            splnorm:   0.15000
               vcte:    0.0000
               rinn:    0.0000
                rcs:    0.0000      0.0000
            lambdas:    1.0000      1.0000
L=0  Nkbl=1  erefs: 0.17977+309
L=1  Nkbl=1  erefs: 0.17977+309
L=2  Nkbl=1  erefs: 0.17977+309
</basis_specs>

atom: Called for H                     (Z =   1)

read_vps: Pseudopotential generation method:
read_vps: ATM 3.2.2 Troullier-Martins
Total valence charge:    1.00000

xc_check: Exchange-correlation functional:
xc_check: GGA Perdew, Burke & Ernzerhof 1996
V l=0 = -2*Zval/r beyond r=  1.2656
V l=1 = -2*Zval/r beyond r=  1.2498
V l=2 = -2*Zval/r beyond r=  0.3563
All V_l potentials equal beyond r=  1.2656
This should be close to max(r_c) in ps generation
All pots = -2*Zval/r beyond r=  1.2656

VLOCAL1: 99.0% of the norm of Vloc inside     27.100 Ry
VLOCAL1: 99.9% of the norm of Vloc inside     61.762 Ry
atom: Maximum radius for 4*pi*r*r*local-pseudopot. charge    1.48935
atom: Maximum radius for r*vlocal+2*Zval:    1.24984
GHOST: No ghost state for L =  0
GHOST: No ghost state for L =  1
GHOST: No ghost state for L =  2

KBgen: Kleinman-Bylander projectors:
   l= 0   rc=  1.398961   el= -0.477209   Ekb= -2.001853   kbcos= -0.352188
   l= 1   rc=  1.470814   el=  0.001006   Ekb= -0.423408   kbcos= -0.024395
   l= 2   rc=  1.489346   el=  0.001895   Ekb= -0.481957   kbcos= -0.001574

KBgen: Total number of  Kleinman-Bylander projectors:    9
atom: -------------------------------------------------------------------------

atom: SANKEY-TYPE ORBITALS:
atom: Selected multiple-zeta basis: split

SPLIT: Orbitals with angular momentum L= 0

SPLIT: Basis orbitals for state 1s

SPLIT: PAO cut-off radius determined from an
SPLIT: energy shift=  0.020000 Ry

   izeta = 1
                 lambda =    1.000000
                     rc =    4.708991
                 energy =   -0.457764
                kinetic =    0.979534
    potential(screened) =   -1.437298
       potential(ionic) =   -1.965615

   izeta = 2
                 rmatch =    3.759707
              splitnorm =    0.150000
                 energy =   -0.339003
                kinetic =    1.582546
    potential(screened) =   -1.921548
       potential(ionic) =   -2.471878

POLgen: Perturbative polarization orbital with L=  1

POLgen: Polarization orbital for state 1s

   izeta = 1
                     rc =    4.708991
                 energy =    0.764951
                kinetic =    1.476882
    potential(screened) =   -0.711931
       potential(ionic) =   -1.204335
atom: Total number of Sankey-type orbitals:  5

atm_pop: Valence configuration (for local Pseudopot. screening):
 1s( 1.00)
Vna: chval, zval:    1.00000   1.00000

Vna:  Cut-off radius for the neutral-atom potential:   4.708991

atom: _________________________________________________________________________

<basis_specs>
C                    Z=   6    Mass=  12.010        Charge= 0.17977+309
Lmxo=1 Lmxkb= 3    BasisType=split      Semic=F
L=0  Nsemic=0  Cnfigmx=2
          n=1  nzeta=2  polorb=0
            splnorm:   0.15000
               vcte:    0.0000
               rinn:    0.0000
                rcs:    0.0000      0.0000
            lambdas:    1.0000      1.0000
L=1  Nsemic=0  Cnfigmx=2
          n=1  nzeta=2  polorb=1
            splnorm:   0.15000
               vcte:    0.0000
               rinn:    0.0000
                rcs:    0.0000      0.0000
            lambdas:    1.0000      1.0000
L=0  Nkbl=1  erefs: 0.17977+309
L=1  Nkbl=1  erefs: 0.17977+309
L=2  Nkbl=1  erefs: 0.17977+309
L=3  Nkbl=1  erefs: 0.17977+309
</basis_specs>

[...]

SPLIT: Basis orbitals for state 2p

[...]

POLgen: Polarization orbital for state 2p

[...]

atm_pop: Valence configuration (for local Pseudopot. screening):
 2s( 2.00)
 2p( 2.00)
Vna: chval, zval:    4.00000   4.00000

[...]

SPLIT: Basis orbitals for state 2p

[...]

POLgen: Polarization orbital for state 2p

[...]

atm_pop: Valence configuration (for local Pseudopot. screening):
 2s( 2.00)
 2p( 5.00)
Vna: chval, zval:    7.00000   7.00000

[...]

<basis_specs>
Ag                   Z=  47    Mass=  107.87        Charge= 0.17977+309
Lmxo=2 Lmxkb= 3    BasisType=split      Semic=F
L=0  Nsemic=0  Cnfigmx=5
          n=1  nzeta=2  polorb=1
            splnorm:   0.15000
               vcte:    0.0000
               rinn:    0.0000
                rcs:    0.0000      0.0000
            lambdas:    1.0000      1.0000
L=1  Nsemic=0  Cnfigmx=5
L=2  Nsemic=0  Cnfigmx=4
          n=1  nzeta=2  polorb=0
            splnorm:   0.15000
               vcte:    0.0000
               rinn:    0.0000
                rcs:    0.0000      0.0000
            lambdas:    1.0000      1.0000
L=0  Nkbl=1  erefs: 0.17977+309
L=1  Nkbl=1  erefs: 0.17977+309
L=2  Nkbl=1  erefs: 0.17977+309
L=3  Nkbl=1  erefs: 0.17977+309
</basis_specs>

atom: Called for Ag                    (Z =  47)

read_vps: Pseudopotential generation method:
read_vps: ATM 3.2.2 Troullier-Martins
Total valence charge:   11.00000

xc_check: Exchange-correlation functional:
xc_check: GGA Perdew, Burke & Ernzerhof 1996
V l=0 = -2*Zval/r beyond r=  2.4592
V l=1 = -2*Zval/r beyond r=  2.6507
V l=2 = -2*Zval/r beyond r=  2.4592
V l=3 = -2*Zval/r beyond r=  2.4592
All V_l potentials equal beyond r=  2.6507
This should be close to max(r_c) in ps generation
All pots = -2*Zval/r beyond r=  2.6507

VLOCAL1: 99.0% of the norm of Vloc inside      6.178 Ry
VLOCAL1: 99.9% of the norm of Vloc inside     14.079 Ry
atom: Maximum radius for 4*pi*r*r*local-pseudopot. charge    3.19739
atom: Maximum radius for r*vlocal+2*Zval:    2.82168
GHOST: No ghost state for L =  0
GHOST: No ghost state for L =  1
GHOST: No ghost state for L =  2
GHOST: No ghost state for L =  3

KBgen: Kleinman-Bylander projectors:
   l= 0   rc=  2.966357   el= -0.323666   Ekb=  3.565490   kbcos=  0.247453
   l= 1   rc=  3.003670   el= -0.054265   Ekb=  1.619308   kbcos=  0.223076
   l= 2   rc=  2.786631   el= -0.547066   Ekb= -7.840816   kbcos= -0.714112
   l= 3   rc=  3.079709   el=  0.002953   Ekb= -2.732950   kbcos= -0.012571

KBgen: Total number of  Kleinman-Bylander projectors:   16
atom: -------------------------------------------------------------------------

atom: SANKEY-TYPE ORBITALS:
atom: Selected multiple-zeta basis: split

[...]

SPLIT: Basis orbitals for state 5s

[...]

SPLIT: Orbitals with angular momentum L= 2

SPLIT: Basis orbitals for state 4d

SPLIT: PAO cut-off radius determined from an
SPLIT: energy shift=  0.020000 Ry

   izeta = 1
                 lambda =    1.000000
                     rc =    3.954440
                 energy =   -0.527442
                kinetic =    6.210364
    potential(screened) =   -6.737807
       potential(ionic) =  -18.733043

   izeta = 2
                 rmatch =    2.490121
              splitnorm =    0.150000
                 energy =   -0.148928
                kinetic =    8.576261
    potential(screened) =   -8.725189
       potential(ionic) =  -21.658221

POLgen: Perturbative polarization orbital with L=  1

POLgen: Polarization orbital for state 5s

   izeta = 1
                     rc =    6.684855
                 energy =   -0.001728
                kinetic =    0.597115
    potential(screened) =   -0.598843
       potential(ionic) =   -7.554613
atom: Total number of Sankey-type orbitals: 15

atm_pop: Valence configuration (for local Pseudopot. screening):
 5s( 1.00)
 5p( 0.00)
 4d(10.00)
Vna: chval, zval:   11.00000  11.00000

[...]
              0.002   0.004   0.005   0.006   0.003
  36  6.948   1.453   0.287   1.876   1.921   1.325  -0.015  -0.033   0.115
              0.004   0.001   0.003   0.006   0.006
  37  6.961   1.462   0.279   1.350   1.917   1.885   0.107  -0.032  -0.026
              0.004   0.006   0.002   0.001   0.006
  42  6.937   1.469   0.278   1.774   1.758   1.514   0.020   0.025   0.080
              0.005   0.002   0.003   0.004   0.005
  43  6.939   1.451   0.288   1.896   1.308   1.867  -0.018   0.141  -0.015
              0.001   0.005   0.008   0.005   0.001
  48  6.924   1.458   0.283   1.434   1.680   1.900   0.121   0.053  -0.024
              0.004   0.006   0.003   0.003   0.004
  49  6.949   1.459   0.283   1.631   1.582   1.908   0.046   0.047  -0.027
              0.003   0.006   0.004   0.004   0.003
  54  6.924   1.460   0.283   1.707   1.487   1.822   0.043   0.089   0.013
              0.002   0.006   0.005   0.004   0.002
  55  6.938   1.453   0.285   1.658   1.819   1.607   0.040  -0.005   0.062
              0.005   0.003   0.003   0.003   0.005
  60  6.928   1.451   0.287   1.380   1.847   1.791   0.137   0.006   0.009
              0.006   0.004   0.003   0.002   0.006
  61  6.945   1.453   0.285   1.849   1.377   1.869  -0.004   0.114  -0.017
              0.001   0.004   0.008   0.006   0.001
  66  6.924   1.460   0.282   1.762   1.345   1.903   0.028   0.142  -0.019
              0.001   0.005   0.007   0.005   0.001
  67  6.931   1.445   0.291   1.423   1.855   1.794   0.107  -0.013   0.009
              0.006   0.004   0.003   0.002   0.006
  72  6.931   1.463   0.282   1.496   1.850   1.686   0.100  -0.011   0.046
              0.006   0.004   0.003   0.002   0.004
  73  6.944   1.451   0.287   1.764   1.693   1.635   0.016   0.028   0.050
              0.004   0.004   0.005   0.005   0.003
  78  6.906   1.439   0.297   1.860   1.697   1.426  -0.001   0.051   0.114
              0.004   0.002   0.005   0.007   0.005
  79  6.899   1.446   0.294   1.473   1.716   1.764   0.108   0.049   0.027
              0.005   0.005   0.004   0.003   0.005
  84  6.927   1.453   0.286   1.685   1.577   1.794   0.048   0.063   0.002
              0.003   0.005   0.006   0.004   0.002
  85  6.949   1.460   0.281   1.469   1.898   1.746   0.085  -0.024   0.014
              0.006   0.004   0.003   0.002   0.006
  90  6.930   1.448   0.289   1.387   1.807   1.850   0.117   0.016  -0.005
              0.006   0.005   0.003   0.001   0.006
  91  6.937   1.452   0.288   1.758   1.423   1.897   0.017   0.102  -0.017
              0.001   0.005   0.006   0.005   0.001
[...]
              0.006   0.001   0.003   0.004   0.006
1231  6.903   1.428   0.302   1.822   1.334   1.819   0.011   0.154   0.013
              0.001   0.006   0.007   0.004   0.001
1236  6.929   1.445   0.291   1.453   1.749   1.846   0.093   0.037  -0.006
              0.004   0.006   0.003   0.002   0.005
1237  6.950   1.466   0.278   1.863   1.807   1.435  -0.016   0.003   0.096
              0.004   0.002   0.003   0.005   0.005
1242  6.947   1.472   0.275   1.787   1.401   1.882   0.015   0.113  -0.018
              0.002   0.006   0.006   0.005   0.002
1243  6.939   1.460   0.282   1.680   1.670   1.722   0.042   0.040   0.025
              0.004   0.004   0.003   0.004   0.005
1248  6.917   1.463   0.282   1.518   1.619   1.863   0.083   0.067   0.001
              0.003   0.006   0.003   0.002   0.004
1249  6.913   1.483   0.270   1.521   1.711   1.710   0.097   0.047   0.054
              0.005   0.005   0.003   0.003   0.005

Species: Ag
Atom  Qatom  Qorb
1251 11.096   0.360   0.443   1.862   1.914   1.893   1.910   1.869   0.035
              0.018   0.026   0.014   0.035   0.251   0.206   0.261
1252 11.065   0.549   0.372   1.929   1.943   1.922   1.968   1.907   0.001
             -0.005   0.002  -0.014   0.003   0.195   0.146   0.144
1253 11.062   0.496   0.422   1.932   1.939   1.923   1.964   1.911   0.002
             -0.002  -0.002  -0.011   0.002   0.202   0.137   0.145
1254 11.040   0.458   0.435   1.902   1.980   1.918   1.937   1.922   0.010
             -0.016   0.003   0.000   0.004   0.132   0.149   0.205
1255 11.067   0.469   0.442   1.887   1.901   1.898   1.947   1.876   0.020
              0.015   0.016  -0.001   0.028   0.242   0.143   0.183
1256 10.961   0.286   0.496   1.887   1.963   1.903   1.926   1.908   0.019
             -0.004   0.020   0.009   0.013   0.149   0.171   0.214
1257 11.055   0.429   0.500   1.882   1.888   1.890   1.947   1.893   0.022
              0.020   0.020   0.000   0.020   0.233   0.147   0.166
1258 11.121   0.505   0.394   1.901   1.919   1.914   1.908   1.890   0.012
              0.011   0.015   0.009   0.023   0.180   0.193   0.246
1259 11.052   0.451   0.424   1.850   1.904   1.919   1.881   1.915   0.031
              0.019   0.011   0.032   0.016   0.267   0.157   0.175
1260 10.999   0.321   0.460   1.874   1.871   1.897   1.916   1.880   0.027
              0.041   0.029   0.018   0.029   0.213   0.198   0.224
1261 11.020   0.312   0.495   1.877   1.917   1.908   1.889   1.888   0.026
              0.013   0.018   0.030   0.025   0.223   0.189   0.211
1262 11.031   0.599   0.429   1.933   1.911   1.893   1.926   1.936   0.001
              0.011   0.012   0.006  -0.006   0.128   0.123   0.128
1263 10.997   0.468   0.477   1.934   1.907   1.916   1.914   1.912   0.006
              0.016   0.004   0.016   0.011   0.147   0.139   0.132
1264 11.075   0.393   0.497   1.886   1.915   1.884   1.903   1.893   0.023
              0.013   0.024   0.019   0.018   0.202   0.185   0.221
1265 11.058   0.469   0.418   1.878   1.913   1.885   1.893   1.893   0.024
              0.014   0.027   0.025   0.020   0.206   0.181   0.212
1266 11.058   0.350   0.519   1.898   1.877   1.911   1.917   1.880   0.015
              0.031   0.014   0.012   0.029   0.187   0.192   0.226
1267 11.011   0.364   0.452   1.861   1.930   1.916   1.912   1.952   0.021
              0.005   0.015   0.011  -0.001   0.233   0.171   0.167
1268 11.019   0.535   0.371   1.966   1.939   1.943   1.968   1.932  -0.018
             -0.006  -0.005  -0.015  -0.002   0.125   0.141   0.145
1269 10.996   0.547   0.365   1.955   1.932   1.931   1.917   1.915  -0.009
              0.000   0.003   0.012   0.005   0.135   0.148   0.141
1270 11.030   0.315   0.519   1.915   1.869   1.876   1.915   1.904   0.013
              0.030   0.026   0.016   0.018   0.208   0.227   0.178
1271 11.035   0.333   0.490   1.924   1.879   1.880   1.929   1.879   0.013
              0.029   0.023   0.010   0.027   0.234   0.222   0.163
1272 11.021   0.224   0.545   1.886   1.879   1.871   1.884   1.890   0.030
              0.029   0.029   0.031   0.025   0.252   0.240   0.207
1273 11.068   0.420   0.468   1.904   1.914   1.883   1.886   1.910   0.016
              0.013   0.022   0.023   0.014   0.163   0.218   0.215
1274 11.019   0.242   0.551   1.880   1.878   1.866   1.880   1.887   0.029
              0.031   0.031   0.030   0.027   0.245   0.228   0.214
1275 11.041   0.321   0.506   1.897   1.919   1.883   1.894   1.922   0.020
              0.014   0.022   0.020   0.011   0.171   0.227   0.212
1276 11.080   0.129   0.641   1.871   1.881   1.863   1.884   1.872   0.035
              0.034   0.034   0.033   0.035   0.255   0.259   0.255
1277 11.038   0.340   0.464   1.893   1.920   1.899   1.911   1.852   0.022
              0.016   0.022   0.014   0.030   0.230   0.197   0.231
1278 10.995   0.565   0.362   1.920   1.976   1.887   1.920   1.976  -0.001
             -0.014   0.019   0.002  -0.016   0.103   0.143   0.151
1279 11.035   0.366   0.485   1.866   1.913   1.892   1.912   1.868   0.031
              0.016   0.023   0.015   0.033   0.220   0.196   0.197
1280 11.111   0.495   0.432   1.884   1.919   1.913   1.922   1.899   0.019
              0.008   0.013   0.009   0.014   0.212   0.192   0.180
1281 11.017   0.649   0.297   1.969   1.949   1.947   1.980   1.942  -0.017
             -0.012  -0.015  -0.021  -0.011   0.134   0.123   0.104
1282 10.984   0.500   0.383   1.953   1.922   1.924   1.935   1.933  -0.005
              0.005   0.005   0.004  -0.001   0.143   0.141   0.143

mulliken: Qtot =     5346.000

siesta: Program's energy decomposition (eV):
siesta: Ebs     =    -75949.818030
siesta: Eions   =    528240.072706
siesta: Ena     =     58055.784925
siesta: Ekin    =    270050.536397
siesta: Enl     =    -93460.703586
siesta: DEna    =       235.995506
siesta: DUscf   =       348.238792
siesta: DUext   =         0.000000
siesta: Exc     =    -81896.737461
siesta: eta*DQ  =         0.000000
siesta: Emadel  =         0.000000
siesta: Emeta   =         0.000000
siesta: Emolmec =         0.000000
siesta: Ekinion =         0.000000
siesta: Eharris =   -374906.959352
siesta: Etot    =   -374906.958134
siesta: FreeEng =   -374906.996723

siesta: Final energy (eV):
siesta:  Band Struct. =  -75949.818030
siesta:       Kinetic =  270050.536397
siesta:       Hartree =  181207.295762
siesta:    Ext. field =       0.000000
siesta:   Exch.-corr. =  -81896.737461
siesta:  Ion-electron = -602038.745906
siesta:       Ion-ion = -142229.306926
siesta:       Ekinion =       0.000000
siesta:         Total = -374906.958134

siesta: Atomic forces (eV/Ang):
siesta:      1   -1.014548    0.469348    0.312896
siesta:      2    0.359991   -0.319956    0.331906
siesta:      3    0.384335    0.807433    0.124288
siesta:      4   -0.187984   -0.279123   -0.600220
siesta:      5    0.506586    0.576210   -1.264355
siesta:      6   -0.417062   -1.520005   -0.626552
siesta:      7   -0.066175    0.217951    1.437863
siesta:      8    0.606993    0.864777    0.008733
siesta:      9   -0.331894   -0.417071    0.236923
siesta:     10   -0.027695    0.511235    0.459405
siesta:     11    0.986821   -0.068628   -0.555153
siesta:     12    0.199467   -0.850215   -1.012529
siesta:     13   -1.165730    0.473801    0.301135
siesta:     14   -0.054812   -1.213351    0.085971
siesta:     15   -0.228224    0.924123    0.664335
siesta:     16    0.623276   -0.057870    0.020806
siesta:     17   -0.298653   -0.837276   -0.188017
siesta:     18   -0.972054    1.203242    0.300258
siesta:     19    1.370126    0.321739   -0.703873
siesta:     20    0.187639   -0.156114   -0.205835
siesta:     21   -0.519479   -0.654259    0.139780
siesta:     22   -0.384502    0.460947    0.081196
siesta:     23   -0.483200    0.679947    0.301211
siesta:     24    1.626404   -0.447273    0.583065
siesta:     25   -1.176705   -0.337332   -0.771984
siesta:     26   -0.888294    0.032577    0.488918
siesta:     27    0.563670    0.609542    0.000550
siesta:     28    0.184694   -0.567258   -0.318326
siesta:     29   -0.724292   -0.204174    0.836017
siesta:     30    0.024669    1.027258    0.745462
siesta:     31    1.067620    0.137736   -1.500096
siesta:     32    0.413373   -0.688094    0.049214
siesta:     33   -0.427051   -0.964828    0.036774
siesta:     34   -0.393589    0.166218    0.168334
siesta:     35    0.157803   -0.295450   -0.039822
siesta:     36   -0.918701   -0.540654    0.044657
siesta:     37    0.689535    1.087508    0.131980
siesta:     38    0.819175   -0.413660    0.477490
siesta:     39   -0.876314    0.196867   -0.432279
siesta:     40    0.763050    0.327962   -0.072443
siesta:     41    0.799309    0.257696    0.215903
siesta:     42   -0.893674   -0.787759    0.921669
siesta:     43    0.007969    0.014290   -1.236739
siesta:     44    0.138345    0.741224   -0.310731
siesta:     45    0.143742   -0.073626    1.237896
siesta:     46   -0.340680   -0.312885   -0.104419
siesta:     47   -0.405449   -0.101148    0.215729
siesta:     48    0.270837   -1.669798   -0.751805
siesta:     49   -0.074495    1.020089   -0.187707
siesta:     50   -0.126193    0.011806   -0.279004
siesta:     51    0.244783    0.249897   -0.647552
siesta:     52    0.015888    1.016101    0.669094
siesta:     53    0.558526   -0.190899   -0.254398
siesta:     54    0.555220    0.918239    1.116002
siesta:     55   -1.383051   -1.144959    0.552362
siesta:     56    0.425676    0.106486   -0.335466
siesta:     57   -0.508949   -1.034498   -0.443250
siesta:     58    0.371245    0.105006   -0.841066
siesta:     59    0.008626   -0.122309    0.010468
siesta:     60    0.889377    1.992016   -0.066347
[...]
siesta:   1268    0.762764    0.008913    0.824231
siesta:   1269   -0.632192    0.339051    0.786401
siesta:   1270   -0.507187    0.047722   -0.147188
siesta:   1271    0.861260    0.550127   -0.545659
siesta:   1272   -0.365850    0.235306    0.202575
siesta:   1273   -0.122030    0.366795    0.049422
siesta:   1274    0.155803    0.288240   -0.179096
siesta:   1275    0.348828    0.496506   -0.243985
siesta:   1276   -0.087555   -0.067456   -0.098208
siesta:   1277   -0.069658    0.327180   -0.380868
siesta:   1278    0.093464    0.794016   -0.572015
siesta:   1279   -0.247720    0.134320   -0.207031
siesta:   1280    0.212906    0.241883   -0.182582
siesta:   1281   -0.761709   -0.363590   -0.366017
siesta:   1282    0.898121   -0.369388   -0.474380
siesta: ----------------------------------------
siesta:    Tot   -0.179561    0.081375   -0.041885

siesta: Stress tensor (static) (eV/Ang**3):
siesta:     0.005454   -0.004483    0.001247
siesta:    -0.004483   -0.002175    0.002670
siesta:     0.001247    0.002670   -0.002555

siesta: Cell volume =      13041.289483 Ang**3

siesta: Pressure (static):
siesta:                Solid            Molecule  Units
siesta:          -0.00000263         -0.00026989  Ry/Bohr**3
siesta:          -0.00024124         -0.02478047  eV/Ang**3
siesta:          -0.38650972        -39.70312224  kBar
(Free)E+ p_basis*V_orbitals  =     -374631.397194
(Free)Eharris+ p_basis*V_orbitals  =     -374631.405887

Optical: Performing optical calculation:

Optical: Polarization type       = polarized
Optical: Minimum of energy range =   0.0001 Ry
Optical: Maximum of energy range =   7.3498 Ry
Optical: Gaussian broadening     =   0.0037 Ry
Optical: Scissor operator        =   0.0000 Ry
Optical: Number of bands         =    13386
Optical: BZ mesh dimensions      =    1   1   1

Optical: electric field direction
Optical:      0.00000     0.00000     1.00000

Optical: Checking f-sum rule  0.879918
Optical: For insulators and closed shell systems
Optical: this number should be close to 1 if an enough
Optical: number of unoccupied bands have been included

elaps:  Routine       Calls   Time/call    Tot.time        %
elaps:  siesta            1   54600.668   54600.668   100.00
elaps:  Setup             1       2.248       2.248     0.00
elaps:  bands             1       0.000       0.000     0.00
elaps:  writewave         1       0.001       0.001     0.00
elaps:  KSV_init          1       0.000       0.000     0.00
elaps:  IterMD            1    3289.197    3289.197     6.02
elaps:  hsparse           1       0.547       0.547     0.00
elaps:  overlap           1       1.317       1.317     0.00
elaps:  IterSCF          26     125.026    3250.674     5.95
elaps:  kinefsm           2       0.690       1.379     0.00
elaps:  nlefsm            2       3.628       7.256     0.01
elaps:  DHSCF            27      15.277     412.487     0.76
elaps:  DHSCF1            1       0.727       0.727     0.00
elaps:  DHSCF2            1      15.479      15.479     0.03
elaps:  REORD           164       0.001       0.240     0.00
elaps:  POISON           28       0.342       9.574     0.02
elaps:  DHSCF3           27      14.369     387.951     0.71
elaps:  rhoofd           27       5.702     153.941     0.28
elaps:  cellXC           27       1.124      30.350     0.06
elaps:  vmat             27       6.020     162.547     0.30
elaps:  MolMec            2       0.002       0.003     0.00
elaps:  diagon           26      96.789    2516.506     4.61
elaps:  r-eigvec         26      94.006    2444.160     4.48
elaps:  r-buildHS        26       0.012       0.317     0.00
elaps:  rdiag            27      94.054    2539.448     4.65
elaps:  rdiag1           27       2.997      80.932     0.15
elaps:  rdiag2           27      22.630     611.020     1.12
elaps:  rdiag3           27      61.299    1655.075     3.03
elaps:  rdiag4           27       6.756     182.416     0.33
elaps:  r-buildD         26       2.774      72.135     0.13
elaps:  DHSCF4            1       8.254       8.254     0.02
elaps:  dfscf             1       7.332       7.332     0.01
elaps:  overfsm           1       0.080       0.080     0.00
elaps:  optical           1   51307.830   51307.830    93.97
elaps:  phirphiopt        1      17.036      17.036     0.03
elaps:  transrate         1   51191.230   51191.230    93.76

>> End of run:  27-APR-2012  18:49:59