>> Start of run:  21-OCT-2014  22:30:25

reinit: Reading from standard input
************************** Dump of input data file ****************************
SystemName      optical
SystemLabel     optical
NumberOfAtoms   1282
NumberOfSpecies 4
MD.TypeOfRun    CG
MD.NumCGsteps   0
MD.ConstantVolume  .true.
SolutionMethod  diagon
XC.functional   GGA
XC.authors      PBE
PAO.BasisSize   DZP
DM.NumberPulay  7
DM.MixingWeight 0.1
DirectPhi       .true.
MeshCutoff      500 Ry
MaxSCFiterations 200
UseSaveData     .true.
WriteMullikenPop 1
OpticalCalculation      .true.
%block Optical.Mesh
 1 1 1
%endblock Optical.Mesh
Optical.PolarizationType  polarized
%block Optical.Vector
 1.0 0.0 0.0
%endblock Optical.Vector
Optical.Broaden         0.05 eV
Optical.EnergyMinimum   0.001 eV
Optical.EnergyMaximum   100.0 eV
%block ChemicalSpeciesLabel
 1   1   H
 2   6   C
 3   9   F
 4  47   Ag
%endblock ChemicalSpeciesLabel
LatticeConstant 1.0 Ang
%block LatticeParameters
  22.534   24.472   23.649   90.0 90.0 90.0
%endblock LatticeParameters
AtomicCoordinatesFormat Ang
%block AtomicCoordinatesAndAtomicSpecies < struct.coor
%endblock AtomicCoordinatesAndAtomicSpecies
************************** End of input data file *****************************

reinit: -----------------------------------------------------------------------
reinit: System Name: optical
reinit: -----------------------------------------------------------------------
reinit: System Label: optical
reinit: -----------------------------------------------------------------------

initatom: Reading input for the pseudopotentials and atomic orbitals ----------
 Species number:            1  Label: H Atomic number:           1
 Species number:            2  Label: C Atomic number:           6
 Species number:            3  Label: F Atomic number:           9
 Species number:            4  Label: Ag Atomic number:          47
Ground state valence configuration:   1s01
Reading pseudopotential information in formatted form from H.psf

Valence configuration for pseudopotential generation:
1s( 1.00) rc: 1.33
2p( 0.00) rc: 1.33
3d( 0.00) rc: 0.37
4f( 0.00) rc: 1.33
Ground state valence configuration:   2s02  2p02
Reading pseudopotential information in formatted form from C.psf

Valence configuration for pseudopotential generation:
2s( 2.00) rc: 1.56
2p( 2.00) rc: 1.56
3d( 0.00) rc: 1.56
4f( 0.00) rc: 1.56
Ground state valence configuration:   2s02  2p05
Reading pseudopotential information in formatted form from F.psf

Valence configuration for pseudopotential generation:
2s( 2.00) rc: 1.41
2p( 5.00) rc: 1.41
3d( 0.00) rc: 1.41
4f( 0.00) rc: 1.41
Ground state valence configuration:   5s01  4d10
Reading pseudopotential information in formatted form from Ag.psf

Valence configuration for pseudopotential generation:
5s( 1.00) rc: 2.52
5p( 0.00) rc: 2.72
4d(10.00) rc: 2.52
4f( 0.00) rc: 2.52
For H, standard SIESTA heuristics set lmxkb to 2
 (one more than the basis l, including polarization orbitals).
Use PS.lmax or PS.KBprojectors blocks to override.
For C, standard SIESTA heuristics set lmxkb to 3
 (one more than the basis l, including polarization orbitals).
Use PS.lmax or PS.KBprojectors blocks to override.
For F, standard SIESTA heuristics set lmxkb to 3
 (one more than the basis l, including polarization orbitals).
Use PS.lmax or PS.KBprojectors blocks to override.
For Ag, standard SIESTA heuristics set lmxkb to 3
 (one more than the basis l, including polarization orbitals).
Use PS.lmax or PS.KBprojectors blocks to override.

<basis_specs>
H                    Z=   1    Mass=  1.0100        Charge= 0.17977+309
Lmxo=0 Lmxkb= 2    BasisType=split      Semic=F
L=0  Nsemic=0  Cnfigmx=1
          n=1  nzeta=2  polorb=1
            splnorm:   0.15000
               vcte:    0.0000
               rinn:    0.0000
                rcs:    0.0000      0.0000
            lambdas:   1.00000     1.00000
L=0  Nkbl=1  erefs: 0.17977+309
L=1  Nkbl=1  erefs: 0.17977+309
L=2  Nkbl=1  erefs: 0.17977+309
</basis_specs>

atom: Called for H                     (Z =   1)

read_vps: Pseudopotential generation method:
read_vps: ATM 3.2.2 Troullier-Martins
Total valence charge:    1.00000

xc_check: Exchange-correlation functional:
xc_check: GGA Perdew, Burke & Ernzerhof 1996
V l=0 = -2*Zval/r beyond r=  1.2656
V l=1 = -2*Zval/r beyond r=  1.2498
V l=2 = -2*Zval/r beyond r=  0.3563
All V_l potentials equal beyond r=  1.2656
This should be close to max(r_c) in ps generation
All pots = -2*Zval/r beyond r=  1.2656

VLOCAL1: 99.0% of the norm of Vloc inside     27.100 Ry
VLOCAL1: 99.9% of the norm of Vloc inside     61.762 Ry
atom: Maximum radius for 4*pi*r*r*local-pseudopot. charge    1.48935
atom: Maximum radius for r*vlocal+2*Zval:    1.24984
GHOST: No ghost state for L =  0
GHOST: No ghost state for L =  1
GHOST: No ghost state for L =  2

KBgen: Kleinman-Bylander projectors:
   l= 0   rc=  1.398961   el= -0.477209   Ekb= -2.001853   kbcos= -0.352188
   l= 1   rc=  1.470814   el=  0.001006   Ekb= -0.423408   kbcos= -0.024395
   l= 2   rc=  1.489346   el=  0.001895   Ekb= -0.481957   kbcos= -0.001574

KBgen: Total number of  Kleinman-Bylander projectors:    9
atom: -------------------------------------------------------------------------

atom: SANKEY-TYPE ORBITALS:
atom: Selected multiple-zeta basis: split

SPLIT: Orbitals with angular momentum L= 0

SPLIT: Basis orbitals for state 1s

SPLIT: PAO cut-off radius determined from an
SPLIT: energy shift=  0.020000 Ry

   izeta = 1
                 lambda =    1.000000
                     rc =    4.708991
                 energy =   -0.457764
                kinetic =    0.979534
    potential(screened) =   -1.437298
       potential(ionic) =   -1.965615

   izeta = 2
                 rmatch =    3.759707
              splitnorm =    0.150000
                 energy =   -0.339003
                kinetic =    1.582546
    potential(screened) =   -1.921548
       potential(ionic) =   -2.471878

POLgen: Perturbative polarization orbital with L=  1

POLgen: Polarization orbital for state 1s

   izeta = 1
                     rc =    4.708991
                 energy =    0.764951
                kinetic =    1.476882
    potential(screened) =   -0.711931
       potential(ionic) =   -1.204335
atom: Total number of Sankey-type orbitals:  5

atm_pop: Valence configuration (for local Pseudopot. screening):
 1s( 1.00)
Vna: chval, zval:    1.00000   1.00000

Vna:  Cut-off radius for the neutral-atom potential:   4.708991

atom: _________________________________________________________________________

<basis_specs>
C                    Z=   6    Mass=  12.010        Charge= 0.17977+309
Lmxo=1 Lmxkb= 3    BasisType=split      Semic=F
L=0  Nsemic=0  Cnfigmx=2
          n=1  nzeta=2  polorb=0
            splnorm:   0.15000
               vcte:    0.0000
               rinn:    0.0000
                rcs:    0.0000      0.0000
            lambdas:   1.00000     1.00000
L=1  Nsemic=0  Cnfigmx=2
          n=1  nzeta=2  polorb=1
            splnorm:   0.15000
               vcte:    0.0000
               rinn:    0.0000
                rcs:    0.0000      0.0000
            lambdas:   1.00000     1.00000
L=0  Nkbl=1  erefs: 0.17977+309
L=1  Nkbl=1  erefs: 0.17977+309
L=2  Nkbl=1  erefs: 0.17977+309
L=3  Nkbl=1  erefs: 0.17977+309
</basis_specs>

[...]

SPLIT: Basis orbitals for state 2p

[...]

POLgen: Polarization orbital for state 2p

[...]

atm_pop: Valence configuration (for local Pseudopot. screening):
 2s( 2.00)
 2p( 2.00)
Vna: chval, zval:    4.00000   4.00000

[...]

SPLIT: Basis orbitals for state 2p

[...]

POLgen: Polarization orbital for state 2p

[...]

atm_pop: Valence configuration (for local Pseudopot. screening):
 2s( 2.00)
 2p( 5.00)
Vna: chval, zval:    7.00000   7.00000

[...]

<basis_specs>
Ag                   Z=  47    Mass=  107.87        Charge= 0.17977+309
Lmxo=2 Lmxkb= 3    BasisType=split      Semic=F
L=0  Nsemic=0  Cnfigmx=5
          n=1  nzeta=2  polorb=1
            splnorm:   0.15000
               vcte:    0.0000
               rinn:    0.0000
                rcs:    0.0000      0.0000
            lambdas:   1.00000     1.00000
L=1  Nsemic=0  Cnfigmx=5
L=2  Nsemic=0  Cnfigmx=4
          n=1  nzeta=2  polorb=0
            splnorm:   0.15000
               vcte:    0.0000
               rinn:    0.0000
                rcs:    0.0000      0.0000
            lambdas:   1.00000     1.00000
L=0  Nkbl=1  erefs: 0.17977+309
L=1  Nkbl=1  erefs: 0.17977+309
L=2  Nkbl=1  erefs: 0.17977+309
L=3  Nkbl=1  erefs: 0.17977+309
</basis_specs>

atom: Called for Ag                    (Z =  47)

read_vps: Pseudopotential generation method:
read_vps: ATM 3.2.2 Troullier-Martins
Total valence charge:   11.00000

xc_check: Exchange-correlation functional:
xc_check: GGA Perdew, Burke & Ernzerhof 1996
V l=0 = -2*Zval/r beyond r=  2.4592
V l=1 = -2*Zval/r beyond r=  2.6507
V l=2 = -2*Zval/r beyond r=  2.4592
V l=3 = -2*Zval/r beyond r=  2.4592
All V_l potentials equal beyond r=  2.6507
This should be close to max(r_c) in ps generation
All pots = -2*Zval/r beyond r=  2.6507

VLOCAL1: 99.0% of the norm of Vloc inside      6.178 Ry
VLOCAL1: 99.9% of the norm of Vloc inside     14.079 Ry
atom: Maximum radius for 4*pi*r*r*local-pseudopot. charge    3.19739
atom: Maximum radius for r*vlocal+2*Zval:    2.82168
GHOST: No ghost state for L =  0
GHOST: No ghost state for L =  1
GHOST: No ghost state for L =  2
GHOST: No ghost state for L =  3

KBgen: Kleinman-Bylander projectors:
   l= 0   rc=  2.966357   el= -0.323666   Ekb=  3.565490   kbcos=  0.247453
   l= 1   rc=  3.003670   el= -0.054265   Ekb=  1.619308   kbcos=  0.223076
   l= 2   rc=  2.786631   el= -0.547066   Ekb= -7.840816   kbcos= -0.714112
   l= 3   rc=  3.079709   el=  0.002953   Ekb= -2.732950   kbcos= -0.012571

KBgen: Total number of  Kleinman-Bylander projectors:   16
atom: -------------------------------------------------------------------------

atom: SANKEY-TYPE ORBITALS:
atom: Selected multiple-zeta basis: split

[...]

SPLIT: Basis orbitals for state 5s

[...]

SPLIT: Orbitals with angular momentum L= 2

SPLIT: Basis orbitals for state 4d

SPLIT: PAO cut-off radius determined from an
SPLIT: energy shift=  0.020000 Ry

   izeta = 1
                 lambda =    1.000000
                     rc =    3.954440
                 energy =   -0.527442
                kinetic =    6.210364
    potential(screened) =   -6.737807
       potential(ionic) =  -18.733043

   izeta = 2
                 rmatch =    2.490121
              splitnorm =    0.150000
                 energy =   -0.148928
                kinetic =    8.576261
    potential(screened) =   -8.725189
       potential(ionic) =  -21.658221

POLgen: Perturbative polarization orbital with L=  1

POLgen: Polarization orbital for state 5s

   izeta = 1
                     rc =    6.684855
                 energy =   -0.001728
                kinetic =    0.597115
    potential(screened) =   -0.598843
       potential(ionic) =   -7.554613
atom: Total number of Sankey-type orbitals: 15

atm_pop: Valence configuration (for local Pseudopot. screening):
 5s( 1.00)
 5p( 0.00)
 4d(10.00)
Vna: chval, zval:   11.00000  11.00000

[...]
  36  6.933   1.466   0.279   1.573   1.782   1.685   0.064   0.015   0.049
              0.005   0.004   0.002   0.003   0.004
  37  6.941   1.457   0.284   1.768   1.491   1.810   0.015   0.089   0.006
              0.003   0.005   0.006   0.005   0.002
  42  6.937   1.462   0.281   1.488   1.726   1.845   0.096   0.028  -0.010
              0.004   0.005   0.003   0.002   0.005
  43  6.917   1.449   0.290   1.874   1.469   1.667  -0.010   0.114   0.045
              0.002   0.003   0.005   0.006   0.003
  48  6.915   1.442   0.293   1.487   1.870   1.664   0.104  -0.002   0.037
              0.006   0.004   0.003   0.003   0.004
  49  6.937   1.465   0.278   1.558   1.862   1.621   0.085  -0.007   0.055
              0.007   0.003   0.003   0.004   0.004
  54  6.903   1.459   0.286   1.783   1.551   1.613   0.017   0.096   0.078
              0.003   0.004   0.004   0.005   0.003
  55  6.930   1.452   0.287   1.527   1.630   1.887   0.085   0.057  -0.014
              0.004   0.006   0.004   0.003   0.004
  60  6.932   1.463   0.281   1.491   1.814   1.754   0.079   0.008   0.023
              0.006   0.004   0.003   0.002   0.005
  61  6.941   1.454   0.284   1.849   1.329   1.896   0.001   0.133  -0.024
              0.001   0.005   0.008   0.005   0.001
  66  6.946   1.459   0.282   1.898   1.712   1.476  -0.022   0.023   0.098
              0.003   0.002   0.003   0.006   0.005
  67  6.933   1.457   0.285   1.592   1.639   1.822   0.072   0.047  -0.001
              0.003   0.006   0.004   0.003   0.004
  72  6.923   1.467   0.279   1.341   1.823   1.834   0.141   0.019  -0.000
              0.006   0.004   0.002   0.001   0.006
  73  6.936   1.462   0.282   1.820   1.444   1.799   0.001   0.092   0.018
              0.001   0.004   0.007   0.005   0.001
  78  6.939   1.460   0.284   1.407   1.789   1.874   0.105   0.016  -0.015
              0.005   0.005   0.003   0.002   0.005
  79  6.925   1.464   0.282   1.787   1.576   1.644   0.015   0.073   0.066
              0.003   0.004   0.005   0.006   0.003
  84  6.937   1.473   0.275   1.492   1.731   1.812   0.086   0.033   0.016
              0.004   0.006   0.004   0.002   0.005
  85  6.914   1.451   0.289   1.819   1.823   1.347   0.020   0.002   0.144
              0.004   0.001   0.003   0.006   0.005
  90  6.946   1.478   0.272   1.463   1.796   1.815   0.086   0.004   0.014
              0.004   0.005   0.003   0.002   0.005
  91  6.910   1.447   0.291   1.797   1.685   1.489   0.025   0.052   0.103
              0.003   0.002   0.004   0.006   0.004
[...]
              0.006   0.004   0.003   0.002   0.006
1231  6.946   1.451   0.287   1.819   1.419   1.849   0.001   0.109  -0.011
              0.002   0.005   0.006   0.006   0.001
1236  6.897   1.450   0.292   1.607   1.856   1.466   0.072   0.002   0.129
              0.007   0.003   0.003   0.004   0.006
1237  6.920   1.441   0.296   1.805   1.574   1.642  -0.002   0.088   0.055
              0.003   0.003   0.005   0.005   0.003
1242  6.900   1.480   0.277   1.781   1.294   1.835   0.031   0.167   0.011
              0.002   0.006   0.008   0.005   0.002
1243  6.918   1.465   0.284   1.767   1.782   1.445   0.025   0.007   0.120
              0.005   0.003   0.003   0.006   0.006
1248  6.915   1.477   0.274   1.300   1.858   1.821   0.151   0.000   0.013
              0.004   0.006   0.003   0.001   0.007
1249  6.910   1.458   0.285   1.805   1.862   1.298   0.026   0.003   0.154
              0.005   0.001   0.002   0.006   0.006

Species: Ag
Atom  Qatom  Qorb
1251 11.088   0.311   0.507   1.860   1.893   1.878   1.906   1.865   0.038
              0.024   0.032   0.016   0.038   0.248   0.211   0.261
1252 11.049   0.529   0.382   1.936   1.942   1.915   1.955   1.906   0.000
             -0.001   0.004  -0.008   0.003   0.202   0.146   0.137
1253 11.082   0.546   0.419   1.921   1.939   1.924   1.931   1.901   0.006
             -0.002   0.001   0.003   0.010   0.200   0.135   0.148
1254 11.008   0.382   0.494   1.902   1.913   1.918   1.916   1.927   0.013
              0.020   0.006   0.011   0.005   0.155   0.155   0.191
1255 10.952   0.381   0.447   1.889   1.903   1.899   1.916   1.898   0.021
              0.021   0.017   0.020   0.023   0.190   0.144   0.182
1256 11.003   0.477   0.375   1.924   1.969   1.892   1.915   1.935   0.003
             -0.009   0.018   0.009   0.001   0.142   0.141   0.212
1257 11.076   0.576   0.359   1.886   1.931   1.913   1.957   1.931   0.019
             -0.001   0.007  -0.004   0.002   0.196   0.133   0.172
1258 11.016   0.364   0.427   1.885   1.919   1.896   1.893   1.867   0.025
              0.015   0.029   0.025   0.034   0.194   0.183   0.262
1259 11.057   0.649   0.295   1.918   1.973   1.933   1.931   1.959   0.000
             -0.016  -0.007  -0.002  -0.010   0.150   0.148   0.135
1260 11.026   0.388   0.432   1.880   1.907   1.873   1.916   1.892   0.025
              0.017   0.039   0.011   0.021   0.229   0.179   0.218
1261 11.043   0.354   0.441   1.888   1.922   1.923   1.921   1.896   0.022
              0.008   0.009   0.014   0.018   0.222   0.190   0.216
1262 11.068   0.668   0.390   1.946   1.934   1.908   1.935   1.921  -0.007
             -0.003   0.004   0.004   0.000   0.138   0.111   0.118
1263 11.041   0.582   0.379   1.960   1.923   1.905   1.956   1.941  -0.014
              0.009   0.009  -0.011  -0.005   0.143   0.130   0.135
1264 11.112   0.455   0.465   1.868   1.920   1.890   1.904   1.887   0.030
              0.011   0.023   0.019   0.021   0.221   0.171   0.227
1265 11.054   0.288   0.513   1.882   1.921   1.903   1.908   1.898   0.025
              0.011   0.018   0.019   0.020   0.218   0.201   0.231
1266 11.016   0.303   0.546   1.890   1.885   1.890   1.916   1.853   0.019
              0.025   0.029   0.015   0.045   0.184   0.187   0.230
1267 10.913   0.355   0.401   1.890   1.949   1.917   1.910   1.924   0.022
              0.002   0.014   0.023   0.016   0.162   0.175   0.155
1268 10.999   0.471   0.419   1.941   1.926   1.931   1.940   1.906  -0.004
              0.008   0.001   0.000   0.014   0.151   0.149   0.146
1269 10.996   0.523   0.357   1.953   1.944   1.940   1.976   1.940  -0.007
             -0.006  -0.007  -0.021  -0.005   0.144   0.137   0.128
1270 10.985   0.265   0.550   1.911   1.877   1.872   1.861   1.867   0.019
              0.030   0.028   0.046   0.036   0.232   0.228   0.162
1271 11.073   0.334   0.570   1.908   1.872   1.878   1.910   1.902   0.017
              0.029   0.021   0.016   0.014   0.226   0.221   0.153
1272 11.012   0.322   0.520   1.894   1.888   1.861   1.860   1.897   0.023
              0.035   0.031   0.037   0.027   0.178   0.226   0.212
1273 11.066   0.355   0.531   1.880   1.888   1.874   1.892   1.911   0.027
              0.028   0.024   0.025   0.015   0.174   0.230   0.211
1274 11.129   0.543   0.386   1.905   1.912   1.882   1.888   1.918   0.016
              0.012   0.020   0.020   0.011   0.185   0.227   0.204
1275 11.035   0.324   0.521   1.891   1.908   1.867   1.886   1.891   0.025
              0.018   0.030   0.030   0.024   0.177   0.231   0.213
1276 11.063   0.164   0.553   1.880   1.890   1.875   1.887   1.881   0.032
              0.032   0.033   0.031   0.032   0.258   0.261   0.254
1277 11.018   0.367   0.464   1.888   1.909   1.899   1.912   1.860   0.024
              0.017   0.022   0.016   0.032   0.203   0.185   0.218
1278 11.001   0.544   0.368   1.913   1.964   1.942   1.898   1.954   0.005
             -0.010  -0.003   0.014  -0.006   0.133   0.151   0.134
1279 11.039   0.376   0.489   1.871   1.896   1.900   1.908   1.885   0.032
              0.022   0.020   0.017   0.023   0.213   0.184   0.203
1280 11.088   0.484   0.410   1.883   1.915   1.908   1.919   1.898   0.021
              0.013   0.012   0.011   0.017   0.220   0.178   0.198
1281 10.967   0.559   0.342   1.938   1.940   1.941   1.958   1.933   0.003
             -0.004  -0.006  -0.010  -0.006   0.138   0.129   0.113
1282 10.967   0.502   0.375   1.949   1.939   1.926   1.917   1.918  -0.005
             -0.003   0.004   0.014   0.006   0.130   0.149   0.147

mulliken: Qtot =     5346.000

siesta: Program's energy decomposition (eV):
siesta: Ebs     =    -75961.084041
siesta: Eions   =    528240.072706
siesta: Ena     =     58054.375846
siesta: Ekin    =    270083.401330
siesta: Enl     =    -93476.870804
siesta: DEna    =       229.905227
siesta: DUscf   =       347.860940
siesta: DUext   =         0.000000
siesta: Exc     =    -81901.590800
siesta: eta*DQ  =         0.000000
siesta: Emadel  =         0.000000
siesta: Emeta   =         0.000000
siesta: Emolmec =         0.000000
siesta: Ekinion =         0.000000
siesta: Eharris =   -374902.990529
siesta: Etot    =   -374902.990967
siesta: FreeEng =   -374903.039570

siesta: Final energy (eV):
siesta:  Band Struct. =  -75961.084041
siesta:       Kinetic =  270083.401330
siesta:       Hartree =  180751.352567
siesta:    Ext. field =       0.000000
siesta:   Exch.-corr. =  -81901.590800
siesta:  Ion-electron = -601164.443838
siesta:       Ion-ion = -142671.710225
siesta:       Ekinion =       0.000000
siesta:         Total = -374902.990967

siesta: Atomic forces (eV/Ang):
siesta:      1    0.464596   -0.388491    1.271751
siesta:      2    0.269648   -0.434163   -0.461736
siesta:      3   -0.399243    0.880753   -0.667528
siesta:      4   -0.734716   -0.420170    0.149844
siesta:      5   -0.210839   -1.336606   -0.579376
siesta:      6    1.788937   -0.223685   -0.736487
siesta:      7   -0.763475    1.604712    0.915818
siesta:      8   -0.440324   -0.687752    0.345659
siesta:      9    0.300224    0.536127    0.352029
siesta:     10   -0.458639    0.070736    0.429453
siesta:     11    0.260920    0.437352   -0.096690
siesta:     12   -0.973707   -1.088880   -1.122633
siesta:     13    1.474618    0.004255   -0.319239
siesta:     14    0.035273    0.367198   -0.366723
siesta:     15    0.233445    0.251653    0.887135
siesta:     16   -0.967294   -0.255613    0.006593
siesta:     17    0.634525   -0.088781   -0.615819
siesta:     18    1.584115    0.931489   -0.408038
siesta:     19   -0.734613   -0.340468    0.958695
siesta:     20    0.057409    0.224334   -0.083978
siesta:     21   -0.065499   -0.346473    0.553867
siesta:     22   -0.444431   -0.164129   -0.798965
siesta:     23   -0.129696    0.064584    0.947382
siesta:     24   -0.531826   -1.260877   -0.281226
siesta:     25    0.157405    1.286745   -0.515867
siesta:     26    0.042098   -0.279617    0.919714
siesta:     27    0.195383   -0.255475   -0.753874
siesta:     28    0.491112    0.860344    0.332156
siesta:     29    0.324127    0.232902   -0.996496
siesta:     30   -0.184651    1.008961    0.994349
siesta:     31   -1.112673   -1.459756   -0.399742
siesta:     32    0.456462    1.177003   -0.575377
siesta:     33    0.219983    0.368611    0.758008
siesta:     34   -0.428095   -0.784544    0.411620
siesta:     35    0.178712    0.373455    0.050786
siesta:     36    0.650613   -0.674949    0.832928
siesta:     37   -0.547416   -0.455978   -1.539832
siesta:     38   -0.329100   -0.677262   -0.289972
siesta:     39   -0.317940    0.541808   -0.633722
siesta:     40    0.466448    0.702972    0.758267
siesta:     41   -0.634385   -0.635330   -0.464732
siesta:     42   -0.010085    1.047375   -0.882940
siesta:     43    0.733972   -0.517345    1.059557
siesta:     44    0.175548    0.231460   -0.039716
siesta:     45    0.725906    0.282473    0.156704
siesta:     46   -0.116372   -0.773047    0.542860
siesta:     47    0.178184    0.786914    0.205403
siesta:     48   -0.623883   -1.611369   -0.070302
siesta:     49   -1.014420    1.670486   -0.698418
siesta:     50    0.800805    0.050198    0.454712
siesta:     51    0.406671   -0.597615    0.192124
siesta:     52   -0.354963   -0.289949   -0.438407
siesta:     53    0.256955   -0.400827    0.474734
siesta:     54   -0.866330    0.391193   -1.255795
siesta:     55    0.280760    0.969651    1.399933
siesta:     56   -0.170218   -0.739287    0.813919
siesta:     57   -0.213727   -0.624563   -0.629423
siesta:     58    0.071115    0.583013   -0.659652
siesta:     59   -0.295799   -0.164816    0.310502
siesta:     60    0.433006    0.460420   -0.574536
[...]
siesta:   1268    0.741587    0.282334    0.819122
siesta:   1269   -0.612709    0.537348    0.897268
siesta:   1270   -0.675425    0.084180   -0.175390
siesta:   1271    0.237736    0.022744   -0.092957
siesta:   1272   -0.514947   -0.642182    0.399934
siesta:   1273   -0.387356    0.303306   -0.017922
siesta:   1274    0.399434   -0.244742    0.335404
siesta:   1275    0.540461    0.408744   -0.460773
siesta:   1276   -0.077432    0.093917   -0.091570
siesta:   1277   -0.305227   -0.472500   -0.420232
siesta:   1278    0.009396    0.749162   -0.529509
siesta:   1279   -0.315356    0.232603   -0.150558
siesta:   1280    0.353745    0.313932   -0.029902
siesta:   1281   -0.536280   -0.637510   -0.719186
siesta:   1282    0.943899   -0.382573   -0.581292
siesta: ----------------------------------------
siesta:    Tot   -0.275585    0.111108    0.132309

siesta: Stress tensor (static) (eV/Ang**3):
siesta:    -0.000687   -0.004370    0.001845
siesta:    -0.004370    0.001324    0.000651
siesta:     0.001845    0.000651   -0.002627

siesta: Cell volume =      13041.289483 Ang**3

siesta: Pressure (static):
siesta:                Solid            Molecule  Units
siesta:           0.00000722          0.00002909  Ry/Bohr**3
siesta:           0.00066322          0.00267049  eV/Ang**3
siesta:           1.06260537          4.27864316  kBar
(Free)E+ p_basis*V_orbitals  =     -374627.440041
(Free)Eharris+ p_basis*V_orbitals  =     -374627.459102

Optical: Performing optical calculation:

Optical: Polarization type       = polarized
Optical: Minimum of energy range =   0.0001 Ry
Optical: Maximum of energy range =   7.3498 Ry
Optical: Gaussian broadening     =   0.0037 Ry
Optical: Scissor operator        =   0.0000 Ry
Optical: Number of bands         =    13386
Optical: Number of electrons     =     5346
Optical: BZ mesh dimensions      =    1   1   1

Optical: electric field direction
Optical:      1.00000     0.00000     0.00000

Optical: Checking f-sum rule  0.880195
Optical: For insulators and closed shell systems
Optical: this number should be close to 1 if an enough
Optical: number of unoccupied bands have been included

elaps:  Routine       Calls   Time/call    Tot.time        %
elaps:  siesta            1   14801.110   14801.110   100.00
elaps:  Setup             1       1.412       1.412     0.01
elaps:  bands             1       0.000       0.000     0.00
elaps:  writewave         1       0.001       0.001     0.00
elaps:  KSV_init          1       0.000       0.000     0.00
elaps:  IterMD            1    2676.610    2676.610    18.08
elaps:  hsparse           1       0.541       0.541     0.00
elaps:  overlap           1       1.450       1.450     0.01
elaps:  IterSCF          21     125.636    2638.361    17.83
elaps:  kinefsm           2       0.751       1.502     0.01
elaps:  nlefsm            2       3.704       7.408     0.05
elaps:  DHSCF            22      16.146     355.204     2.40
elaps:  DHSCF1            1       0.670       0.670     0.00
elaps:  DHSCF2            1      17.086      17.086     0.12
elaps:  REORD           134       0.001       0.174     0.00
elaps:  POISON           23       0.327       7.529     0.05
elaps:  DHSCF3           22      14.941     328.708     2.22
elaps:  rhoofd           22       6.578     144.718     0.98
elaps:  cellXC           22       1.110      24.417     0.16
elaps:  vmat             22       6.496     142.903     0.97
elaps:  MolMec            2       0.002       0.003     0.00
elaps:  diagon           21      89.078    1870.646    12.64
elaps:  r-eigvec         21      86.556    1817.674    12.28
elaps:  r-buildHS        21       0.014       0.299     0.00
elaps:  rdiag            22      86.575    1904.660    12.87
elaps:  rdiag1           22       3.031      66.675     0.45
elaps:  rdiag2           22      19.713     433.679     2.93
elaps:  rdiag3           22      57.595    1267.081     8.56
elaps:  rdiag4           22       5.872     129.194     0.87
elaps:  r-buildD         21       2.514      52.795     0.36
elaps:  DHSCF4            1       8.661       8.661     0.06
elaps:  dfscf             1       7.703       7.703     0.05
elaps:  overfsm           1       0.079       0.079     0.00
elaps:  optical           1   12122.286   12122.286    81.90
elaps:  phirphiopt        1      24.903      24.903     0.17
elaps:  transrate         1   12004.455   12004.455    81.10

>> End of run:  24-OCT-2014  14:16:14