>> Start of run:   4-APR-2012  22:28:28

reinit: Reading from standard input
************************** Dump of input data file ****************************
SystemName      optical
SystemLabel     optical
NumberOfAtoms   1282
NumberOfSpecies 4
MD.TypeOfRun    CG
MD.NumCGsteps   1
MD.ConstantVolume  .true.
SolutionMethod  diagon
XC.functional   GGA
XC.authors      PBE
PAO.BasisSize   DZP
DM.NumberPulay  7
DM.MixingWeight 0.1
DirectPhi       .true.
MeshCutoff      500 Ry
MaxSCFiterations 200
UseSaveData     .true.
WriteMullikenPop 1
%block ChemicalSpeciesLabel
 1   1   H
 2   6   C
 3   9   F
 4  47   Ag
%endblock ChemicalSpeciesLabel
LatticeConstant 1.0 Ang
%block LatticeParameters
  22.534   24.472   23.649   90.0 90.0 90.0
%endblock LatticeParameters
AtomicCoordinatesFormat Ang
%block AtomicCoordinatesAndAtomicSpecies < struct.coor
%endblock AtomicCoordinatesAndAtomicSpecies
************************** End of input data file *****************************

reinit: -----------------------------------------------------------------------
reinit: System Name: optical
reinit: -----------------------------------------------------------------------
reinit: System Label: optical
reinit: -----------------------------------------------------------------------

initatom: Reading input for the pseudopotentials and atomic orbitals ----------
 Species number:            1  Label: H Atomic number:           1
 Species number:            2  Label: C Atomic number:           6
 Species number:            3  Label: F Atomic number:           9
 Species number:            4  Label: Ag Atomic number:          47
Ground state valence configuration:   1s01
Reading pseudopotential information in formatted form from H.psf

Valence configuration for pseudopotential generation:
1s( 1.00) rc: 1.33
2p( 0.00) rc: 1.33
3d( 0.00) rc: 0.37
4f( 0.00) rc: 1.33
Ground state valence configuration:   2s02  2p02
Reading pseudopotential information in formatted form from C.psf

Valence configuration for pseudopotential generation:
2s( 2.00) rc: 1.56
2p( 2.00) rc: 1.56
3d( 0.00) rc: 1.56
4f( 0.00) rc: 1.56
Ground state valence configuration:   2s02  2p05
Reading pseudopotential information in formatted form from F.psf

Valence configuration for pseudopotential generation:
2s( 2.00) rc: 1.41
2p( 5.00) rc: 1.41
3d( 0.00) rc: 1.41
4f( 0.00) rc: 1.41
Ground state valence configuration:   5s01  4d10
Reading pseudopotential information in formatted form from Ag.psf

Valence configuration for pseudopotential generation:
5s( 1.00) rc: 2.52
5p( 0.00) rc: 2.72
4d(10.00) rc: 2.52
4f( 0.00) rc: 2.52
For H, standard SIESTA heuristics set lmxkb to 2
 (one more than the basis l, including polarization orbitals).
Use PS.lmax or PS.KBprojectors blocks to override.
For C, standard SIESTA heuristics set lmxkb to 3
 (one more than the basis l, including polarization orbitals).
Use PS.lmax or PS.KBprojectors blocks to override.
For F, standard SIESTA heuristics set lmxkb to 3
 (one more than the basis l, including polarization orbitals).
Use PS.lmax or PS.KBprojectors blocks to override.
For Ag, standard SIESTA heuristics set lmxkb to 3
 (one more than the basis l, including polarization orbitals).
Use PS.lmax or PS.KBprojectors blocks to override.

<basis_specs>
H                    Z=   1    Mass=  1.0100        Charge= 0.17977+309
Lmxo=0 Lmxkb= 2    BasisType=split      Semic=F
L=0  Nsemic=0  Cnfigmx=1
          n=1  nzeta=2  polorb=1
            splnorm:   0.15000
               vcte:    0.0000
               rinn:    0.0000
                rcs:    0.0000      0.0000
            lambdas:    1.0000      1.0000
L=0  Nkbl=1  erefs: 0.17977+309
L=1  Nkbl=1  erefs: 0.17977+309
L=2  Nkbl=1  erefs: 0.17977+309
</basis_specs>

atom: Called for H                     (Z =   1)

read_vps: Pseudopotential generation method:
read_vps: ATM 3.2.2 Troullier-Martins
Total valence charge:    1.00000

xc_check: Exchange-correlation functional:
xc_check: GGA Perdew, Burke & Ernzerhof 1996
V l=0 = -2*Zval/r beyond r=  1.2656
V l=1 = -2*Zval/r beyond r=  1.2498
V l=2 = -2*Zval/r beyond r=  0.3563
All V_l potentials equal beyond r=  1.2656
This should be close to max(r_c) in ps generation
All pots = -2*Zval/r beyond r=  1.2656

VLOCAL1: 99.0% of the norm of Vloc inside     27.100 Ry
VLOCAL1: 99.9% of the norm of Vloc inside     61.762 Ry
atom: Maximum radius for 4*pi*r*r*local-pseudopot. charge    1.48935
atom: Maximum radius for r*vlocal+2*Zval:    1.24984
GHOST: No ghost state for L =  0
GHOST: No ghost state for L =  1
GHOST: No ghost state for L =  2

KBgen: Kleinman-Bylander projectors:
   l= 0   rc=  1.398961   el= -0.477209   Ekb= -2.001853   kbcos= -0.352188
   l= 1   rc=  1.470814   el=  0.001006   Ekb= -0.423408   kbcos= -0.024395
   l= 2   rc=  1.489346   el=  0.001895   Ekb= -0.481957   kbcos= -0.001574

KBgen: Total number of  Kleinman-Bylander projectors:    9
atom: -------------------------------------------------------------------------

atom: SANKEY-TYPE ORBITALS:
atom: Selected multiple-zeta basis: split

SPLIT: Orbitals with angular momentum L= 0

SPLIT: Basis orbitals for state 1s

SPLIT: PAO cut-off radius determined from an
SPLIT: energy shift=  0.020000 Ry

   izeta = 1
                 lambda =    1.000000
                     rc =    4.708991
                 energy =   -0.457764
                kinetic =    0.979534
    potential(screened) =   -1.437298
       potential(ionic) =   -1.965615

   izeta = 2
                 rmatch =    3.759707
              splitnorm =    0.150000
                 energy =   -0.339003
                kinetic =    1.582546
    potential(screened) =   -1.921548
       potential(ionic) =   -2.471878

POLgen: Perturbative polarization orbital with L=  1

POLgen: Polarization orbital for state 1s

   izeta = 1
                     rc =    4.708991
                 energy =    0.764951
                kinetic =    1.476882
    potential(screened) =   -0.711931
       potential(ionic) =   -1.204335
atom: Total number of Sankey-type orbitals:  5

atm_pop: Valence configuration (for local Pseudopot. screening):
 1s( 1.00)
Vna: chval, zval:    1.00000   1.00000

Vna:  Cut-off radius for the neutral-atom potential:   4.708991

atom: _________________________________________________________________________

<basis_specs>
C                    Z=   6    Mass=  12.010        Charge= 0.17977+309
Lmxo=1 Lmxkb= 3    BasisType=split      Semic=F
L=0  Nsemic=0  Cnfigmx=2
          n=1  nzeta=2  polorb=0
            splnorm:   0.15000
               vcte:    0.0000
               rinn:    0.0000
                rcs:    0.0000      0.0000
            lambdas:    1.0000      1.0000
L=1  Nsemic=0  Cnfigmx=2
          n=1  nzeta=2  polorb=1
            splnorm:   0.15000
               vcte:    0.0000
               rinn:    0.0000
                rcs:    0.0000      0.0000
            lambdas:    1.0000      1.0000
L=0  Nkbl=1  erefs: 0.17977+309
L=1  Nkbl=1  erefs: 0.17977+309
L=2  Nkbl=1  erefs: 0.17977+309
L=3  Nkbl=1  erefs: 0.17977+309
</basis_specs>

[...]

SPLIT: Basis orbitals for state 2p

[...]

POLgen: Polarization orbital for state 2p

[...]

atm_pop: Valence configuration (for local Pseudopot. screening):
 2s( 2.00)
 2p( 2.00)
Vna: chval, zval:    4.00000   4.00000

[...]

SPLIT: Basis orbitals for state 2p

[...]

POLgen: Polarization orbital for state 2p

[...]

atm_pop: Valence configuration (for local Pseudopot. screening):
 2s( 2.00)
 2p( 5.00)
Vna: chval, zval:    7.00000   7.00000

[...]

<basis_specs>
Ag                   Z=  47    Mass=  107.87        Charge= 0.17977+309
Lmxo=2 Lmxkb= 3    BasisType=split      Semic=F
L=0  Nsemic=0  Cnfigmx=5
          n=1  nzeta=2  polorb=1
            splnorm:   0.15000
               vcte:    0.0000
               rinn:    0.0000
                rcs:    0.0000      0.0000
            lambdas:    1.0000      1.0000
L=1  Nsemic=0  Cnfigmx=5
L=2  Nsemic=0  Cnfigmx=4
          n=1  nzeta=2  polorb=0
            splnorm:   0.15000
               vcte:    0.0000
               rinn:    0.0000
                rcs:    0.0000      0.0000
            lambdas:    1.0000      1.0000
L=0  Nkbl=1  erefs: 0.17977+309
L=1  Nkbl=1  erefs: 0.17977+309
L=2  Nkbl=1  erefs: 0.17977+309
L=3  Nkbl=1  erefs: 0.17977+309
</basis_specs>

atom: Called for Ag                    (Z =  47)

read_vps: Pseudopotential generation method:
read_vps: ATM 3.2.2 Troullier-Martins
Total valence charge:   11.00000

xc_check: Exchange-correlation functional:
xc_check: GGA Perdew, Burke & Ernzerhof 1996
V l=0 = -2*Zval/r beyond r=  2.4592
V l=1 = -2*Zval/r beyond r=  2.6507
V l=2 = -2*Zval/r beyond r=  2.4592
V l=3 = -2*Zval/r beyond r=  2.4592
All V_l potentials equal beyond r=  2.6507
This should be close to max(r_c) in ps generation
All pots = -2*Zval/r beyond r=  2.6507

VLOCAL1: 99.0% of the norm of Vloc inside      6.178 Ry
VLOCAL1: 99.9% of the norm of Vloc inside     14.079 Ry
atom: Maximum radius for 4*pi*r*r*local-pseudopot. charge    3.19739
atom: Maximum radius for r*vlocal+2*Zval:    2.82168
GHOST: No ghost state for L =  0
GHOST: No ghost state for L =  1
GHOST: No ghost state for L =  2
GHOST: No ghost state for L =  3

KBgen: Kleinman-Bylander projectors:
   l= 0   rc=  2.966357   el= -0.323666   Ekb=  3.565490   kbcos=  0.247453
   l= 1   rc=  3.003670   el= -0.054265   Ekb=  1.619308   kbcos=  0.223076
   l= 2   rc=  2.786631   el= -0.547066   Ekb= -7.840816   kbcos= -0.714112
   l= 3   rc=  3.079709   el=  0.002953   Ekb= -2.732950   kbcos= -0.012571

KBgen: Total number of  Kleinman-Bylander projectors:   16
atom: -------------------------------------------------------------------------

atom: SANKEY-TYPE ORBITALS:
atom: Selected multiple-zeta basis: split

[...]

SPLIT: Basis orbitals for state 5s

[...]

SPLIT: Orbitals with angular momentum L= 2

SPLIT: Basis orbitals for state 4d

SPLIT: PAO cut-off radius determined from an
SPLIT: energy shift=  0.020000 Ry

   izeta = 1
                 lambda =    1.000000
                     rc =    3.954440
                 energy =   -0.527442
                kinetic =    6.210364
    potential(screened) =   -6.737807
       potential(ionic) =  -18.733043

   izeta = 2
                 rmatch =    2.490121
              splitnorm =    0.150000
                 energy =   -0.148928
                kinetic =    8.576261
    potential(screened) =   -8.725189
       potential(ionic) =  -21.658221

POLgen: Perturbative polarization orbital with L=  1

POLgen: Polarization orbital for state 5s

   izeta = 1
                     rc =    6.684855
                 energy =   -0.001728
                kinetic =    0.597115
    potential(screened) =   -0.598843
       potential(ionic) =   -7.554613
atom: Total number of Sankey-type orbitals: 15

atm_pop: Valence configuration (for local Pseudopot. screening):
 5s( 1.00)
 5p( 0.00)
 4d(10.00)
Vna: chval, zval:   11.00000  11.00000

Vna:  Cut-off radius for the neutral-atom potential:   6.684855

atom: _________________________________________________________________________

prinput: Basis input ----------------------------------------------------------

PAO.BasisType split

%block ChemicalSpeciesLabel
[...]
              0.015   0.027   0.015   0.035   0.256   0.212   0.260
1252 11.028   0.508   0.402   1.929   1.908   1.918   1.945   1.905   0.006
              0.014   0.004  -0.001   0.008   0.200   0.136   0.145
1253 10.982   0.390   0.473   1.922   1.921   1.903   1.938   1.896   0.012
              0.008   0.012   0.005   0.012   0.206   0.138   0.146
1254 11.042   0.443   0.431   1.912   1.967   1.917   1.919   1.927   0.006
             -0.013   0.007   0.006   0.006   0.158   0.158   0.198
1255 11.069   0.665   0.318   1.911   1.941   1.924   1.964   1.933   0.003
             -0.004  -0.001  -0.015  -0.004   0.146   0.116   0.172
1256 11.074   0.542   0.417   1.876   1.969   1.911   1.918   1.924   0.022
             -0.012   0.007   0.005   0.004   0.149   0.140   0.202
1257 11.050   0.550   0.413   1.903   1.922   1.917   1.945   1.924   0.008
              0.007   0.004   0.000   0.005   0.159   0.127   0.167
1258 11.017   0.354   0.438   1.895   1.884   1.898   1.903   1.864   0.018
              0.032   0.024   0.021   0.033   0.195   0.206   0.250
1259 10.991   0.538   0.367   1.919   1.926   1.929   1.936   1.956   0.006
              0.010  -0.004  -0.001  -0.009   0.131   0.135   0.153
1260 11.017   0.378   0.412   1.878   1.909   1.901   1.908   1.893   0.022
              0.019   0.022   0.018   0.020   0.232   0.197   0.207
1261 11.026   0.393   0.408   1.879   1.907   1.902   1.910   1.894   0.026
              0.018   0.023   0.018   0.018   0.222   0.205   0.203
1262 11.054   0.658   0.304   1.971   1.949   1.936   1.973   1.944  -0.023
             -0.008  -0.013  -0.015  -0.012   0.137   0.126   0.126
1263 11.025   0.626   0.337   1.947   1.926   1.911   1.968   1.888  -0.007
              0.004   0.005  -0.012   0.020   0.149   0.144   0.116
1264 11.055   0.453   0.423   1.879   1.906   1.892   1.906   1.896   0.023
              0.019   0.021   0.019   0.019   0.217   0.182   0.200
1265 11.051   0.392   0.471   1.880   1.909   1.895   1.911   1.899   0.022
              0.017   0.021   0.016   0.016   0.216   0.182   0.203
1266 11.079   0.523   0.368   1.898   1.905   1.894   1.905   1.878   0.017
              0.017   0.022   0.018   0.026   0.186   0.201   0.219
1267 10.951   0.466   0.341   1.914   1.930   1.907   1.916   1.957   0.012
              0.007   0.016   0.010  -0.002   0.149   0.156   0.171
1268 11.000   0.614   0.328   1.965   1.941   1.936   1.971   1.929  -0.016
             -0.007  -0.007  -0.016  -0.005   0.120   0.128   0.118
1269 10.978   0.525   0.373   1.956   1.924   1.898   1.936   1.905  -0.007
              0.006   0.017   0.004   0.014   0.150   0.150   0.128
1270 11.007   0.280   0.536   1.921   1.876   1.879   1.913   1.885   0.013
              0.028   0.023   0.016   0.026   0.222   0.222   0.166
1271 11.086   0.420   0.442   1.927   1.881   1.883   1.926   1.907   0.008
              0.023   0.019   0.012   0.013   0.231   0.228   0.164
1272 11.066   0.427   0.466   1.908   1.911   1.873   1.878   1.906   0.014
              0.014   0.023   0.026   0.019   0.168   0.223   0.210
1273 11.030   0.324   0.509   1.891   1.914   1.878   1.894   1.909   0.026
              0.014   0.027   0.021   0.016   0.186   0.220   0.203
1274 11.006   0.262   0.572   1.873   1.885   1.864   1.877   1.906   0.038
              0.029   0.031   0.028   0.020   0.174   0.230   0.217
1275 11.038   0.346   0.514   1.906   1.891   1.882   1.894   1.899   0.016
              0.025   0.023   0.020   0.021   0.178   0.215   0.205
1276 11.077   0.162   0.587   1.877   1.882   1.872   1.882   1.875   0.033
              0.032   0.035   0.032   0.033   0.256   0.259   0.258
1277 11.093   0.438   0.462   1.900   1.920   1.907   1.920   1.879   0.013
              0.011   0.013   0.010   0.021   0.213   0.166   0.220
1278 10.991   0.618   0.377   1.890   1.953   1.901   1.891   1.932   0.015
             -0.003   0.015   0.019   0.008   0.125   0.123   0.126
1279 11.103   0.552   0.358   1.886   1.914   1.907   1.921   1.895   0.021
              0.011   0.014   0.010   0.015   0.216   0.168   0.214
1280 10.998   0.250   0.566   1.885   1.908   1.884   1.889   1.885   0.026
              0.016   0.029   0.026   0.024   0.225   0.180   0.204
1281 10.983   0.500   0.348   1.956   1.937   1.936   1.958   1.939  -0.011
             -0.003  -0.003  -0.007  -0.007   0.141   0.161   0.137
1282 10.952   0.378   0.471   1.957   1.914   1.926   1.962   1.890  -0.006
              0.011   0.003  -0.009   0.021   0.153   0.144   0.137

mulliken: Qtot =     5346.000

outcoor: Final (unrelaxed) atomic coordinates (Ang):
    6.77901729   16.36140282   15.87573038   2       1  C
    6.64884396   15.84282883   14.91970815   1       2  H
    5.82599545   16.80836226   16.18415043   1       3  H
    7.06937016   15.63638009   16.64194723   1       4  H
    7.83896784   17.45232997   15.73824496   2       5  C
    7.51512979   18.18049966   14.61645978   3       6  F
    7.64167459   18.32764873   16.77736806   3       7  F
    9.33416922   17.10339858   15.66370949   2       8  C
    9.51835025   16.30764976   16.40107052   1       9  H
    9.51270966   16.67391167   14.65896946   1      10  H
   10.40467204   18.20906827   15.87024025   2      11  C
   11.61716302   17.68017671   15.48713708   3      12  F
   10.19731896   19.18698083   14.93241392   3      13  F
   10.62382112   18.91149801   17.22861964   2      14  C
   11.49802539   19.57048559   17.11989714   1      15  H
    9.75478919   19.56087289   17.40757660   1      16  H
   10.83046391   18.07134769   18.51232252   2      17  C
   10.82420617   18.92854868   19.56877149   3      18  F
    9.71004881   17.30838798   18.72662327   3      19  F
   12.06840333   17.16452644   18.65850748   2      20  C
   11.76011488   16.18046465   18.30186195   1      21  H
   12.83539061   17.54865652   17.99032710   1      22  H
   12.71110564   16.98246098   20.04262412   2      23  C
   13.20233828   18.19524026   20.46564308   3      24  F
   11.74392562   16.66825130   20.95976619   3      25  F
   13.87305442   15.98608226   20.21032772   2      26  C
   14.52768501   16.07641556   19.33215247   1      27  H
   14.43860724   16.33698491   21.07948748   1      28  H
   13.58616960   14.48692019   20.40859676   2      29  C
   12.32428186   14.22823100   19.94875809   3      30  F
   14.43251917   13.81185290   19.54855106   3      31  F
   13.74804780   13.87046438   21.80546937   2      32  C
   14.73719593   14.19594237   22.17256693   1      33  H
   12.97978279   14.34959941   22.43546570   1      34  H
   13.62639909   12.33560127   22.01664863   2      35  C
   13.48321328   12.15542032   23.37228963   3      36  F
   12.43262024   11.91895661   21.50538054   3      37  F
   14.69187051   11.34635889   21.51415699   2      38  C
   14.17705102   10.37558142   21.43420667   1      39  H
   14.98680028   11.64083410   20.50911003   1      40  H
   15.98699249   11.07424660   22.30900769   2      41  C
   15.69204381   10.07938210   23.20804837   3      42  F
   16.89606832   10.47821907   21.46637403   3      43  F
   16.71875920   12.18988668   23.07453434   2      44  C
   15.94847585   12.73305870   23.63338277   1      45  H
   17.37480557   11.71509810   23.81733913   1      46  H
   17.56017340   13.21680866   22.30137053   2      47  C
   17.15752419   13.17891103   20.98728104   3      48  F
   17.18278064   14.46398741   22.72391363   3      49  F
   19.09246995   13.17617534   22.35350675   2      50  C
   19.40906351   12.30999310   21.77484525   1      51  H
   19.44813467   14.07518819   21.83483170   1      52  H
   19.84695159   13.13760501   23.70398749   2      53  C
   21.01816924   13.83669226   23.52693479   3      54  F
   19.12550922   13.83414290   24.62196791   3      55  F
   20.24652638   11.78948841   24.33627531   2      56  C
   19.56188702   11.01927494   23.95541562   1      57  H
   21.24710065   11.55616181   23.96152369   1      58  H
   20.30045055   11.58812973   25.86850963   2      59  C
   19.15003588   12.09197194   26.41946676   3      60  F
[...]
    7.15645117    9.79344147   12.89139740   4    1268  Ag
   12.92409500    9.79604830   12.89161666   4    1269  Ag
   12.92582829   11.46325577   15.24575716   4    1270  Ag
    7.15482091   11.46026046   15.24875356   4    1271  Ag
   11.48343491   13.96032469   15.24756562   4    1272  Ag
   11.48328117    8.96176712   15.24649020   4    1273  Ag
    8.59694161   13.95781257   15.24674008   4    1274  Ag
    8.59503894    8.96177036   15.24629447   4    1275  Ag
   10.03981470   11.45988271   15.24698801   4    1276  Ag
   10.04062280   13.12691000   17.60272428   4    1277  Ag
   10.04135854    8.12943496   17.60273783   4    1278  Ag
   11.48307815   10.62701214   17.60455884   4    1279  Ag
    8.59856272   10.62798073   17.60261375   4    1280  Ag
   12.92356903   13.12426608   17.59961261   4    1281  Ag
    7.15456628   13.12479722   17.60087374   4    1282  Ag

siesta: Program's energy decomposition (eV):
siesta: Ebs     =    -75926.195280
siesta: Eions   =    528240.072706
siesta: Ena     =     58066.069002
siesta: Ekin    =    269949.785418
siesta: Enl     =    -93424.606230
siesta: DEna    =       261.776202
siesta: DUscf   =       347.542306
siesta: DUext   =         0.000000
siesta: Exc     =    -81869.096022
siesta: eta*DQ  =         0.000000
siesta: Emadel  =         0.000000
siesta: Emeta   =         0.000000
siesta: Emolmec =         0.000000
siesta: Ekinion =         0.000000
siesta: Eharris =   -374908.602494
siesta: Etot    =   -374908.602030
siesta: FreeEng =   -374908.669520

siesta: Final energy (eV):
siesta:  Band Struct. =  -75926.195280
siesta:       Kinetic =  269949.785418
siesta:       Hartree =  178171.036022
siesta:    Ext. field =       0.000000
siesta:   Exch.-corr. =  -81869.096022
siesta:  Ion-electron = -595878.854405
siesta:       Ion-ion = -145281.473044
siesta:       Ekinion =       0.000000
siesta:         Total = -374908.602030

siesta: Atomic forces (eV/Ang):
siesta:      1    0.996374    0.558539   -0.130760
siesta:      2   -0.002692   -0.432632   -0.426835
siesta:      3   -0.750956    0.443297    0.126574
siesta:      4    0.184669   -0.622557    0.522470
siesta:      5    0.236257   -0.657797    0.167062
siesta:      6   -0.368296    0.843291   -1.514698
siesta:      7   -0.026031    0.998221    1.528891
siesta:      8   -0.219952    0.394592    0.702331
siesta:      9    0.194202   -0.475574    0.294536
siesta:     10    0.229573   -0.259200   -0.475730
siesta:     11   -0.526817   -0.224467    0.467958
siesta:     12    0.903524   -0.942093    0.055906
siesta:     13   -0.651367    1.186196   -0.544413
siesta:     14   -0.146335   -0.893675   -0.018571
siesta:     15    0.632264    0.425278   -0.156513
siesta:     16   -0.681546    0.351987    0.367810
siesta:     17    0.356764   -0.084726    0.164476
siesta:     18    0.155809    1.553659    0.996415
siesta:     19   -1.157791   -1.147734   -0.341646
siesta:     20    0.076819    0.019530   -0.270986
siesta:     21   -0.104870   -1.029405   -0.438468
siesta:     22    0.894676    0.218827   -0.642204
siesta:     23   -0.549635    0.104121   -0.101752
siesta:     24    0.572393    0.946346    0.069653
siesta:     25   -0.962013   -0.511288    0.771344
siesta:     26    0.045103   -0.203896   -0.181717
siesta:     27    0.521269    0.047623   -0.394506
siesta:     28    0.334927    0.566447    0.593041
siesta:     29   -0.142383    0.296084    0.863862
siesta:     30   -1.408316   -0.378476   -0.403888
siesta:     31    0.977944   -0.814058   -0.833183
siesta:     32    0.732471    0.233501   -0.260108
siesta:     33    0.217600    0.154283    0.239650
siesta:     34   -0.388512    0.190998    0.451392
siesta:     35    0.230981    0.332514   -0.250204
siesta:     36    0.329901    0.091191    1.478456
siesta:     37   -0.952251   -0.099079   -0.913832
siesta:     38    0.365313    0.667525    0.203413
siesta:     39   -0.368623   -0.530506    0.046594
siesta:     40    0.393986    0.402094   -0.933095
siesta:     41    0.057309    0.603089    0.130564
siesta:     42   -0.400189   -0.289171    0.949376
siesta:     43    0.639258   -0.349038   -1.166044
siesta:     44    0.062060   -0.257171    0.021346
siesta:     45   -0.315469    0.408036    0.608220
siesta:     46   -0.043592   -0.421469    0.476996
siesta:     47   -0.153545   -0.468504    0.279059
siesta:     48    0.108684   -0.294141   -1.006864
siesta:     49   -0.422182    1.289492    0.799154
siesta:     50    0.101827   -0.996927    0.285762
siesta:     51    0.297727   -0.731408   -0.747004
siesta:     52   -0.033773    0.635947   -0.243277
siesta:     53   -0.125817   -0.212138    0.475276
siesta:     54    0.929162    0.622960   -0.420481
siesta:     55   -1.011864    1.123309    0.924826
siesta:     56   -0.026838   -0.107287   -0.342803
siesta:     57   -0.147266   -0.679712   -0.074575
siesta:     58    0.699650   -0.255736   -0.495884
siesta:     59   -0.041583    0.368845    0.582468
siesta:     60   -0.672107    0.686538    0.489501
[...]
siesta:   1268    0.807436    0.216846    0.506503
siesta:   1269   -0.725663    0.597869    0.530156
siesta:   1270   -0.462288    0.480811   -0.184803
siesta:   1271    0.559107    0.037514    0.258639
siesta:   1272   -0.230304   -0.242138    0.082939
siesta:   1273   -0.253244    0.553520   -0.077146
siesta:   1274    0.286550   -0.614158   -0.038732
siesta:   1275    0.005489    0.553366   -0.104494
siesta:   1276   -0.024374   -0.018555   -0.007043
siesta:   1277    0.092100   -0.154759   -0.481180
siesta:   1278    0.201505    0.806100   -0.481706
siesta:   1279   -0.279625    0.147026   -0.210233
siesta:   1280    0.523984    0.291440   -0.497114
siesta:   1281   -0.798364   -0.548995   -0.937253
siesta:   1282    0.526325   -0.472013   -0.755760
siesta: ----------------------------------------
siesta:    Tot    0.045421   -0.113105   -0.118831

siesta: Stress tensor (static) (eV/Ang**3):
siesta:     0.001845    0.000449    0.001870
siesta:     0.000449    0.010002    0.000072
siesta:     0.001870    0.000072   -0.001674

siesta: Cell volume =      13041.289483 Ang**3

siesta: Pressure (static):
siesta:                Solid            Molecule  Units
siesta:          -0.00003693         -0.00027141  Ry/Bohr**3
siesta:          -0.00339104         -0.02492023  eV/Ang**3
siesta:          -5.43311169        -39.92704888  kBar
(Free)E+ p_basis*V_orbitals  =     -374633.069991
(Free)Eharris+ p_basis*V_orbitals  =     -374633.070264

elaps:  Routine       Calls   Time/call    Tot.time        %
elaps:  siesta            1   29406.361   29406.361   100.00
elaps:  Setup             1       2.494       2.494     0.01
elaps:  bands             1       0.000       0.000     0.00
elaps:  writewave         1       0.001       0.001     0.00
elaps:  KSV_init          1       0.000       0.000     0.00
elaps:  IterMD            2   14701.508   29403.015    99.99
elaps:  hsparse           2       2.449       4.899     0.02
elaps:  overlap           2       1.635       3.271     0.01
elaps:  IterSCF          53     549.047   29099.488    98.96
elaps:  kinefsm           4       1.063       4.252     0.01
elaps:  nlefsm            4       5.849      23.396     0.08
elaps:  DHSCF            55      85.990    4729.475    16.08
elaps:  DHSCF1            1       0.748       0.748     0.00
elaps:  DHSCF2            2      55.023     110.046     0.37
elaps:  REORD           334       0.012       3.868     0.01
elaps:  POISON           57       1.705      97.203     0.33
elaps:  DHSCF3           55      81.959    4507.720    15.33
elaps:  rhoofd           55      38.310    2107.032     7.17
elaps:  cellXC           55       8.616     473.871     1.61
elaps:  vmat             55      32.105    1765.802     6.00
elaps:  MolMec            4       0.002       0.007     0.00
elaps:  diagon           53     461.097   24438.118    83.10
elaps:  r-eigvec         53     447.222   23702.784    80.60
elaps:  r-buildHS        53       0.087       4.593     0.02
elaps:  rdiag            53     447.136   23698.191    80.59
elaps:  rdiag1           53      16.565     877.969     2.99
elaps:  rdiag2           53      61.865    3278.843    11.15
elaps:  rdiag3           53     321.874   17059.310    58.01
elaps:  rdiag4           53      45.661    2420.008     8.23
elaps:  r-buildD         53      13.861     734.658     2.50
elaps:  DHSCF4            2      54.944     109.887     0.37
elaps:  dfscf             2      50.146     100.291     0.34
elaps:  overfsm           2       0.489       0.978     0.00
elaps:  optical           1       0.000       0.000     0.00

>> End of run:   5-APR-2012   6:38:34