>> Start of run:   2-AUG-2023  10:51:25

reinit: Reading from standard input
reinit: Dumped input in INPUT_TMP.31731
************************** Dump of input data file ****************************
SystemName          optical
SystemLabel         optical
NumberOfAtoms       1282
NumberOfSpecies     4
%block ChemicalSpeciesLabel
 1   1   H
 2   6   C
 3   9   F
 4  47   Ag
%endblock ChemicalSpeciesLabel
LatticeConstant 1.0 Ang
AtomicCoordinatesFormat Ang
UseStructFile .true.
%block WaveFuncKPoints
   0.000   0.000   0.000 from 210 to 225 # gamma point, start MO, end MO
%endblock WaveFuncKPoints
SpinPolarized .true.
MD.TypeOfRun  CG
MD.NumCGsteps 0
MD.VariableCell .false.
SolutionMethod diagon
XC.functional GGA
XC.authors PBE
PAO.BasisSize   DZP
DM.NumberPulay 7
DM.MixingWeight 0.1
DM.NumberKick 50
DM.KickMixingWeight 0.01
MaxSCFIterations 100
WriteMullikenPop 1
UseSaveData .true.
SaveRho .true.
LocalDensityOfStates .true.
DM.UseSaveDM		.true.
WriteCoorXmol           .true.
WriteWaveFunctions      .true.
WriteEigenvalues        .true.
WriteDenchar            .true.
WriteDM                 .true.
WriteMDXmol             .true.
WriteDM.NetCDF          .true.
WriteDMHS.NetCDF        .true.
#WriteKpoints            .true.
#LongOutput              .true.
COOP.Write              .true.
************************** End of input data file *****************************

reinit: -----------------------------------------------------------------------
reinit: System Name: optical
reinit: -----------------------------------------------------------------------
reinit: System Label: optical
reinit: -----------------------------------------------------------------------

initatom: Reading input for the pseudopotentials and atomic orbitals ----------
Species number:   1 Atomic number:    1 Label: H
Species number:   2 Atomic number:    6 Label: C
Species number:   3 Atomic number:    9 Label: F
Species number:   4 Atomic number:   47 Label: Ag

Ground state valence configuration:   1s01
Reading pseudopotential information in formatted form from H.psf

Valence configuration for pseudopotential generation:
1s( 1.00) rc: 1.33
2p( 0.00) rc: 1.33
3d( 0.00) rc: 0.37
4f( 0.00) rc: 1.33
Ground state valence configuration:   2s02  2p02
Reading pseudopotential information in formatted form from C.psf

Valence configuration for pseudopotential generation:
2s( 2.00) rc: 1.56
2p( 2.00) rc: 1.56
3d( 0.00) rc: 1.56
4f( 0.00) rc: 1.56
Ground state valence configuration:   2s02  2p05
Reading pseudopotential information in formatted form from F.psf

Valence configuration for pseudopotential generation:
2s( 2.00) rc: 1.41
2p( 5.00) rc: 1.41
3d( 0.00) rc: 1.41
4f( 0.00) rc: 1.41
Ground state valence configuration:   5s01  4d10
Reading pseudopotential information in formatted form from Ag.psf

Valence configuration for pseudopotential generation:
5s( 1.00) rc: 2.52
5p( 0.00) rc: 2.72
4d(10.00) rc: 2.52
4f( 0.00) rc: 2.52
For H, standard SIESTA heuristics set lmxkb to 2
 (one more than the basis l, including polarization orbitals).
Use PS.lmax or PS.KBprojectors blocks to override.
For C, standard SIESTA heuristics set lmxkb to 3
 (one more than the basis l, including polarization orbitals).
Use PS.lmax or PS.KBprojectors blocks to override.
For F, standard SIESTA heuristics set lmxkb to 3
 (one more than the basis l, including polarization orbitals).
Use PS.lmax or PS.KBprojectors blocks to override.
For Ag, standard SIESTA heuristics set lmxkb to 3
 (one more than the basis l, including polarization orbitals).
Use PS.lmax or PS.KBprojectors blocks to override.
Ag: nkbl increased for l=1 due to the presence of a polarization orbital

<basis_specs>
H                    Z=   1    Mass=  1.0100        Charge= 0.17977+309
Lmxo=0 Lmxkb= 2    BasisType=split      Semic=F
L=0  Nsemic=0  Cnfigmx=1
          i=1  nzeta=2  polorb=1  (1s)
            splnorm:   0.15000
               vcte:    0.0000
               rinn:    0.0000
               qcoe:    0.0000
               qyuk:    0.0000
               qwid:   0.10000E-01
                rcs:    0.0000      0.0000
            lambdas:    1.0000      1.0000
L=0  Nkbl=1  erefs: 0.17977+309
L=1  Nkbl=1  erefs: 0.17977+309
L=2  Nkbl=1  erefs: 0.17977+309
</basis_specs>

atom: Called for H                     (Z =   1)

read_vps: Pseudopotential generation method:
read_vps: ATM 3.2.2 Troullier-Martins
Valence charge for ps generation:    1.00000

xc_check: Exchange-correlation functional:
xc_check: GGA Perdew, Burke & Ernzerhof 1996
V l=0 = -2*Zval/r beyond r=  1.2656
V l=1 = -2*Zval/r beyond r=  1.2498
V l=2 = -2*Zval/r beyond r=  0.3563
All V_l potentials equal beyond r=  1.2656
This should be close to max(r_c) in ps generation
All pots = -2*Zval/r beyond r=  1.2656

VLOCAL1: 99.0% of the norm of Vloc inside     27.100 Ry
VLOCAL1: 99.9% of the norm of Vloc inside     61.762 Ry
atom: Maximum radius for 4*pi*r*r*local-pseudopot. charge    1.48935
atom: Maximum radius for r*vlocal+2*Zval:    1.24984
GHOST: No ghost state for L =  0
GHOST: No ghost state for L =  1
GHOST: No ghost state for L =  2

KBgen: Kleinman-Bylander projectors:
   l= 0   rc=  1.398961   el= -0.477209   Ekb= -2.001853   kbcos= -0.352188
   l= 1   rc=  1.470814   el=  0.001006   Ekb= -0.423408   kbcos= -0.024395
   l= 2   rc=  1.489346   el=  0.001895   Ekb= -0.481957   kbcos= -0.001574

KBgen: Total number of Kleinman-Bylander projectors:    9
atom: -------------------------------------------------------------------------

atom: SANKEY-TYPE ORBITALS:
atom: Selected multiple-zeta basis: split

SPLIT: Orbitals with angular momentum L= 0

SPLIT: Basis orbitals for state 1s

SPLIT: PAO cut-off radius determined from an
SPLIT: energy shift=  0.020000 Ry

   izeta = 1
                 lambda =    1.000000
                     rc =    4.708991
                 energy =   -0.457764
                kinetic =    0.979534
    potential(screened) =   -1.437298
       potential(ionic) =   -1.965615

   izeta = 2
                 rmatch =    3.759707
              splitnorm =    0.150000
                 energy =   -0.339003
                kinetic =    1.582546
    potential(screened) =   -1.921548
       potential(ionic) =   -2.471878

POLgen: Perturbative polarization orbital with L=  1

POLgen: Polarization orbital for state 1s

   izeta = 1
                     rc =    4.708991
                 energy =    0.764951
                kinetic =    1.476882
    potential(screened) =   -0.711931
       potential(ionic) =   -1.204335
atom: Total number of Sankey-type orbitals:  5

atm_pop: Valence configuration (for local Pseudopot. screening):
 1s( 1.00)
Vna: chval, zval:    1.00000   1.00000

Vna:  Cut-off radius for the neutral-atom potential:   4.708991

atom: _________________________________________________________________________

<basis_specs>
C                    Z=   6    Mass=  12.010        Charge= 0.17977+309
Lmxo=1 Lmxkb= 3    BasisType=split      Semic=F
L=0  Nsemic=0  Cnfigmx=2
          i=1  nzeta=2  polorb=0  (2s)
            splnorm:   0.15000
               vcte:    0.0000
               rinn:    0.0000
               qcoe:    0.0000
               qyuk:    0.0000
               qwid:   0.10000E-01
                rcs:    0.0000      0.0000
            lambdas:    1.0000      1.0000
L=1  Nsemic=0  Cnfigmx=2
          i=1  nzeta=2  polorb=1  (2p)
            splnorm:   0.15000
               vcte:    0.0000
               rinn:    0.0000
               qcoe:    0.0000
               qyuk:    0.0000
               qwid:   0.10000E-01
                rcs:    0.0000      0.0000
            lambdas:    1.0000      1.0000
L=0  Nkbl=1  erefs: 0.17977+309
L=1  Nkbl=1  erefs: 0.17977+309
L=2  Nkbl=1  erefs: 0.17977+309
L=3  Nkbl=1  erefs: 0.17977+309
</basis_specs>

[...]

SPLIT: Basis orbitals for state 2p

[...]

POLgen: Polarization orbital for state 2p

[...]

atm_pop: Valence configuration (for local Pseudopot. screening):
 2s( 2.00)
 2p( 2.00)
Vna: chval, zval:    4.00000   4.00000

[...]

<basis_specs>
F                    Z=   9    Mass=  19.000        Charge= 0.17977+309
Lmxo=1 Lmxkb= 3    BasisType=split      Semic=F
L=0  Nsemic=0  Cnfigmx=2
          i=1  nzeta=2  polorb=0  (2s)
            splnorm:   0.15000
               vcte:    0.0000
               rinn:    0.0000
               qcoe:    0.0000
               qyuk:    0.0000
               qwid:   0.10000E-01
                rcs:    0.0000      0.0000
            lambdas:    1.0000      1.0000
L=1  Nsemic=0  Cnfigmx=2
          i=1  nzeta=2  polorb=1  (2p)
            splnorm:   0.15000
               vcte:    0.0000
               rinn:    0.0000
               qcoe:    0.0000
               qyuk:    0.0000
               qwid:   0.10000E-01
                rcs:    0.0000      0.0000
            lambdas:    1.0000      1.0000
L=0  Nkbl=1  erefs: 0.17977+309
L=1  Nkbl=1  erefs: 0.17977+309
L=2  Nkbl=1  erefs: 0.17977+309
L=3  Nkbl=1  erefs: 0.17977+309
</basis_specs>

[...]

VLOCAL1: 99.0% of the norm of Vloc inside     24.916 Ry
VLOCAL1: 99.9% of the norm of Vloc inside     56.784 Ry
atom: Maximum radius for 4*pi*r*r*local-pseudopot. charge    1.61221
atom: Maximum radius for r*vlocal+2*Zval:    1.38760
GHOST: No ghost state for L =  0
GHOST: No ghost state for L =  1
GHOST: No ghost state for L =  2
GHOST: No ghost state for L =  3

[...]

SPLIT: Basis orbitals for state 2p

[...]

POLgen: Polarization orbital for state 2p

[...]

atm_pop: Valence configuration (for local Pseudopot. screening):
 2s( 2.00)
 2p( 5.00)
Vna: chval, zval:    7.00000   7.00000

[...]

<basis_specs>
Ag                   Z=  47    Mass=  107.87        Charge= 0.17977+309
Lmxo=2 Lmxkb= 3    BasisType=split      Semic=F
L=0  Nsemic=0  Cnfigmx=5
          i=1  nzeta=2  polorb=1  (5s)
            splnorm:   0.15000
               vcte:    0.0000
               rinn:    0.0000
               qcoe:    0.0000
               qyuk:    0.0000
               qwid:   0.10000E-01
                rcs:    0.0000      0.0000
            lambdas:    1.0000      1.0000
L=1  Nsemic=0  Cnfigmx=5
L=2  Nsemic=0  Cnfigmx=4
          i=1  nzeta=2  polorb=0  (4d)
            splnorm:   0.15000
               vcte:    0.0000
               rinn:    0.0000
               qcoe:    0.0000
               qyuk:    0.0000
               qwid:   0.10000E-01
                rcs:    0.0000      0.0000
            lambdas:    1.0000      1.0000
L=0  Nkbl=1  erefs: 0.17977+309
L=1  Nkbl=2  erefs: 0.17977+309 0.17977+309
L=2  Nkbl=1  erefs: 0.17977+309
L=3  Nkbl=1  erefs: 0.17977+309
</basis_specs>

atom: Called for Ag                    (Z =  47)

read_vps: Pseudopotential generation method:
read_vps: ATM 3.2.2 Troullier-Martins
Valence charge for ps generation:   11.00000

xc_check: Exchange-correlation functional:
xc_check: GGA Perdew, Burke & Ernzerhof 1996
V l=0 = -2*Zval/r beyond r=  2.4592
V l=1 = -2*Zval/r beyond r=  2.6507
V l=2 = -2*Zval/r beyond r=  2.4592
V l=3 = -2*Zval/r beyond r=  2.4592
All V_l potentials equal beyond r=  2.6507
This should be close to max(r_c) in ps generation
All pots = -2*Zval/r beyond r=  2.6507

VLOCAL1: 99.0% of the norm of Vloc inside      6.178 Ry
[...]
              0.013   0.012   0.006   0.007   0.113   0.120   0.075
1271  5.522   0.184   0.247   0.959   0.935   0.938   0.959   0.947   0.007
              0.016   0.012   0.007   0.009   0.114   0.108   0.080
1272  5.525   0.186   0.251   0.933   0.956   0.934   0.943   0.956   0.017
              0.008   0.014   0.013   0.008   0.087   0.114   0.104
1273  5.529   0.196   0.241   0.946   0.945   0.938   0.937   0.950   0.012
              0.015   0.012   0.015   0.011   0.091   0.117   0.102
1274  5.496   0.149   0.269   0.949   0.953   0.934   0.935   0.937   0.010
              0.010   0.015   0.017   0.019   0.084   0.112   0.103
1275  5.552   0.253   0.209   0.954   0.957   0.942   0.944   0.960   0.006
              0.006   0.009   0.009   0.005   0.084   0.109   0.104
1276  5.518   0.085   0.267   0.941   0.945   0.938   0.944   0.942   0.016
              0.015   0.016   0.015   0.016   0.126   0.126   0.127
1277  5.536   0.211   0.241   0.947   0.942   0.948   0.956   0.938   0.009
              0.014   0.010   0.007   0.012   0.101   0.091   0.110
1278  5.454   0.187   0.210   0.949   0.984   0.966   0.948   0.972   0.009
             -0.005   0.003   0.008   0.002   0.072   0.074   0.076
1279  5.570   0.255   0.220   0.937   0.958   0.952   0.956   0.946   0.011
              0.006   0.008   0.006   0.008   0.109   0.086   0.111
1280  5.522   0.176   0.253   0.938   0.952   0.936   0.955   0.946   0.014
              0.009   0.016   0.007   0.010   0.109   0.094   0.105
1281  5.460   0.196   0.216   0.973   0.960   0.968   0.964   0.968  -0.003
              0.004   0.000   0.004  -0.000   0.075   0.070   0.066
1282  5.495   0.273   0.183   0.965   0.969   0.970   0.966   0.960   0.001
             -0.002  -0.002   0.002   0.002   0.068   0.074   0.066

mulliken: Qtot =     2672.490

coxmol: Writing XMOL coordinates into file optical.xyz
Writing WFSX for selected k-points in optical.selected.WFSX

writewave: Wave Functions Coefficients

     Number of k-points =        1
        Number of Spins =        2
   Number of basis orbs =    13386

            k-point =        1    0.000000  0.000000  0.000000
     Spin component =        1
 Num. wavefunctions =       16
Use readwfsx utility to print wavefunction coefficients from WFSX file

            k-point =        1    0.000000  0.000000  0.000000
     Spin component =        2
 Num. wavefunctions =       16
Use readwfsx utility to print wavefunction coefficients from WFSX file
Writing WFSX for COOP/COHP in optical.fullBZ.WFSX

writewave: Wave Functions Coefficients

     Number of k-points =        1
        Number of Spins =        2
   Number of basis orbs =    13386

[...]

            k-point =        1    0.000000  0.000000  0.000000
     Spin component =        2
 Num. wavefunctions =    13386
Use readwfsx utility to print wavefunction coefficients from WFSX file

siesta: Eigenvalues (eV):
  ik is       eps
   1  1  -31.8470  -31.6712  -31.6673  -31.6540  -31.6350  -31.6248  -31.6247  -31.5685  -31.5628  -31.5496
         -31.5426  -31.5407  -31.5356  -31.5351  -31.5311  -31.5232  -31.5084  -31.5008  -31.4979  -31.4861
  -31.4851  -31.4817  -31.4815  -31.4809  -31.4765  -31.4690  -31.4652  -31.4651  -31.4583  -31.4554
  -31.4520  -31.4429  -31.4371  -31.4368  -31.4364  -31.4364  -31.4251  -31.4199  -31.4167  -31.4146
  -31.4060  -31.4038  -31.3871  -31.3867  -31.3857  -31.3837  -31.3786  -31.3768  -31.3761  -31.3751
  -31.3738  -31.3719  -31.3691  -31.3646  -31.3587  -31.3555  -31.3550  -31.3546  -31.3495  -31.3481
  -31.3470  -31.3441  -31.3438  -31.3397  -31.3346  -31.3315  -31.3300  -31.3227  -31.3183  -31.3105
  -31.3066  -31.3036  -31.2967  -31.2962  -31.2938  -31.2873  -31.2862  -31.2847  -31.2823  -31.2802
  -31.2743  -31.2694  -31.2562  -31.2539  -31.2530  -31.2521  -31.2450  -31.2448  -31.2408  -31.2396
  -31.2353  -31.2300  -31.2284  -31.2231  -31.2226  -31.2221  -31.2173  -31.2127  -31.2114  -31.2079
  -31.2065  -31.2052  -31.2039  -31.2037  -31.2026  -31.2024  -31.1970  -31.1956  -31.1954  -31.1940
  -31.1919  -31.1904  -31.1896  -31.1827  -31.1724  -31.1721  -31.1709  -31.1686  -31.1678  -31.1630
  -31.1614  -31.1579  -31.1560  -31.1543  -31.1532  -31.1518  -31.1436  -31.1400  -31.1376  -31.1374
  -31.1279  -31.1274  -31.1264  -31.1198  -31.1182  -31.1130  -31.1116  -31.1110  -31.1023  -31.1016
  -31.1006  -31.0996  -31.0991  -31.0939  -31.0933  -31.0900  -31.0897  -31.0886  -31.0875  -31.0852
  -31.0835  -31.0826  -31.0716  -31.0644  -31.0620  -31.0613  -31.0596  -31.0573  -31.0562  -31.0556
  -31.0548  -31.0542  -31.0463  -31.0439  -31.0383  -31.0360  -31.0350  -31.0334  -31.0310  -31.0210
  -31.0171  -31.0155  -31.0154  -30.9949  -30.9917  -30.9877  -30.9824  -30.9732  -30.9692  -30.9664
  -30.9604  -30.9482  -30.9453  -30.9447  -30.9430  -30.9423  -30.9329  -30.9317  -30.9167  -30.9138
  -30.9138  -30.9127  -30.9053  -30.9011  -30.8878  -30.8813  -30.8694  -30.8576  -30.8426  -30.8286
  -30.8126  -30.8074  -30.8022  -30.8001  -30.7861  -30.7698  -30.7252  -30.6832  -30.1202  -29.9152
  -29.8496  -29.8240  -29.8135  -29.7971  -29.7905  -29.7842  -29.7819  -29.7764  -29.7367  -29.7348
  -29.7290  -29.7256  -29.7209  -29.7125  -29.7097  -29.7036  -29.6975  -29.6971  -29.6916  -29.6801
  -29.6751  -29.6711  -29.6637  -29.6635  -29.6597  -29.6590  -29.6516  -29.6509  -29.6464  -29.6404
  -29.6392  -29.6373  -29.6362  -29.6344  -29.6340  -29.6330  -29.6164  -29.6135  -29.6117  -29.6034
  -29.5984  -29.5950  -29.5933  -29.5908  -29.5850  -29.5823  -29.5800  -29.5792  -29.5781  -29.5748
  -29.5674  -29.5665  -29.5659  -29.5627  -29.5591  -29.5512  -29.5499  -29.5490  -29.5477  -29.5466
  -29.5421  -29.5414  -29.5390  -29.5311  -29.5267  -29.5250  -29.5197  -29.5191  -29.5182  -29.5132
  -29.5125  -29.5109  -29.5106  -29.5006  -29.4975  -29.4934  -29.4924  -29.4919  -29.4901  -29.4880
  -29.4786  -29.4779  -29.4707  -29.4697  -29.4696  -29.4656  -29.4629  -29.4626  -29.4620  -29.4608
  -29.4589  -29.4498  -29.4498  -29.4469  -29.4465  -29.4436  -29.4418  -29.4402  -29.4379  -29.4364
  -29.4364  -29.4319  -29.4314  -29.4294  -29.4276  -29.4210  -29.4168  -29.4074  -29.4063  -29.4044
  -29.3992  -29.3973  -29.3963  -29.3957  -29.3883  -29.3879  -29.3878  -29.3829  -29.3815  -29.3814
  -29.3806  -29.3776  -29.3763  -29.3747  -29.3743  -29.3733  -29.3702  -29.3620  -29.3583  -29.3568
  -29.3540  -29.3510  -29.3475  -29.3463  -29.3457  -29.3418  -29.3381  -29.3348  -29.3345  -29.3319
  -29.3298  -29.3275  -29.3268  -29.3266  -29.3230  -29.3154  -29.3136  -29.3130  -29.3117  -29.3061
  -29.3053  -29.3005  -29.2873  -29.2851  -29.2794  -29.2752  -29.2746  -29.2731  -29.2698  -29.2676
  -29.2640  -29.2637  -29.2614  -29.2583  -29.2563  -29.2475  -29.2458  -29.2406  -29.2312  -29.2289
  -29.2259  -29.2234  -29.2199  -29.2169  -29.2142  -29.2029  -29.1987  -29.1978  -29.1970  -29.1923
  -29.1877  -29.1823  -29.1791  -29.1750  -29.1604  -29.1594  -29.1564  -29.1483  -29.1480  -29.1247
  -29.1196  -29.1148  -29.0955  -29.0872  -29.0871  -29.0830  -29.0780  -29.0729  -29.0699  -29.0590
  -29.0517  -29.0354  -29.0145  -28.9326  -28.9152  -28.8793  -20.4073  -20.3795  -20.3757  -20.3409
  -20.3229  -20.3173  -20.3122  -20.3036  -20.2835  -20.2793  -20.2604  -20.2494  -20.2279  -20.2141
  -20.2105  -20.2013  -20.2001  -20.1977  -20.1916  -20.1841  -20.1803  -20.1720  -20.1685  -20.1565
  -20.1535  -20.1506  -20.1423  -20.1389  -20.1314  -20.1274  -20.1239  -20.1087  -20.0964  -20.0920
  -20.0864  -20.0824  -20.0668  -20.0612  -20.0485  -20.0446  -20.0421  -20.0206  -20.0190  -20.0136
  -20.0108  -20.0078  -20.0050  -20.0008  -19.9926  -19.9875  -19.9809  -19.9788  -19.9615  -19.9605
  -19.9541  -19.9487  -19.9389  -19.9281  -19.9228  -19.9201  -19.9126  -19.9068  -19.9025  -19.9012
  -19.8868  -19.8708  -19.8680  -19.8588  -19.8512  -19.8431  -19.8250  -19.8152  -19.8005  -19.7962
  -19.7869  -19.7807  -19.7654  -19.7579  -19.7419  -19.7378  -19.7302  -19.7196  -19.7023  -19.6909
  -19.6802  -19.6710  -19.6640  -19.6508  -19.6500  -19.6379  -19.6331  -19.6163  -19.6072  -19.5949
  -19.5851  -19.5710  -19.5617  -19.5534  -19.5478  -19.5289  -19.5119  -19.4949  -19.4895  -19.4766
  -19.4609  -19.4415  -19.4386  -19.4281  -19.4120  -19.4002  -19.3869  -19.3763  -19.3543  -19.3383
  -19.3253  -19.3174  -19.2930  -19.2898  -19.2668  -19.2471  -19.2390  -19.2244  -19.1962  -19.1840
  -19.1705  -19.1600  -19.1471  -19.1301  -19.1073  -19.1021  -19.0907  -19.0771  -19.0499  -19.0406
  -19.0226  -19.0098  -18.9984  -18.9724  -18.9635  -18.9447  -18.9264  -18.9065  -18.8921  -18.8833
  -18.8640  -18.8553  -18.8358  -18.8183  -18.8065  -18.7978  -18.7773  -18.7451  -18.7248  -18.7183
  -18.6887  -18.6809  -18.6576  -18.6531  -18.6298  -18.6228  -18.5917  -18.5717  -18.5669  -18.5566
  -18.5439  -18.5184  -18.5110  -18.4959  -18.4720  -18.4649  -18.4412  -18.4247  -18.4168  -18.4023
  -18.3894  -18.3636  -18.3472  -18.3414  -18.3170  -18.3108  -18.3042  -18.2841  -18.2617  -18.2493
[...]
  100.5544  100.5956  100.6217  100.6340  100.6418  100.6843  100.6850  100.7300  100.7511  100.7694
  100.7821  100.8172  100.8679  100.8878  100.9290  100.9388  100.9482  100.9616  101.0153  101.0333
  101.0894  101.1139  101.1292  101.1731  101.2044  101.2210  101.2554  101.2823  101.3296  101.3536
  101.4033  101.4366  101.4421  101.4550  101.4787  101.5431  101.5585  101.5760  101.6173  101.6425
  101.6696  101.6959  101.7311  101.7524  101.7754  101.8435  101.9049  101.9275  101.9575  101.9871
  102.0343  102.0422  102.0617  102.0863  102.1331  102.1866  102.2110  102.2220  102.2736  102.3216
  102.3504  102.3882  102.4309  102.4649  102.4825  102.5111  102.5364  102.5853  102.6460  102.6931
  102.7048  102.7635  102.8340  102.8598  102.9089  102.9677  103.0147  103.0644  103.1450  103.1713
  103.1782  103.2083  103.2321  103.2669  103.3557  103.3914  103.4802  103.5125  103.5524  103.5753
  103.6272  103.6695  103.6956  103.7374  103.7941  103.8134  103.8664  103.8773  103.9382  103.9625
  104.0321  104.0861  104.1111  104.1593  104.1949  104.2261  104.2768  104.3556  104.4236  104.4887
  104.5029  104.5910  104.6624  104.7429  104.7836  104.8106  104.9084  104.9708  105.0134  105.0506
  105.0756  105.1293  105.2246  105.2411  105.2753  105.3798  105.4374  105.5512  105.5904  105.6993
  105.8211  105.8342  106.1470  106.1689  106.2584  106.3816  106.5610  106.6794  106.6984  106.9159
  107.0552  107.1602  107.5931  107.7165  107.9398  108.5098
siesta: Fermi energy =      -2.044731 eV

siesta: Program's energy decomposition (eV):
siesta: Ebs     =    -75958.336247
siesta: Eions   =    528240.072706
siesta: Ena     =     58052.192669
siesta: Ekin    =    270078.669849
siesta: Enl     =    -93473.498156
siesta: Eso     =         0.000000
siesta: Edftu   =         0.000000
siesta: DEna    =       232.783644
siesta: DUscf   =       347.327513
siesta: DUext   =         0.000000
siesta: Exc     =    -81899.095955
siesta: eta*DQ  =         0.000000
siesta: Emadel  =         0.000000
siesta: Emeta   =         0.000000
siesta: Emolmec =         0.000000
siesta: Ekinion =         0.000000
siesta: Eharris =   -374901.693114
siesta: Etot    =   -374901.693141
siesta: FreeEng =   -374901.751527

siesta: Final energy (eV):
siesta:  Band Struct. =  -75958.336247
siesta:       Kinetic =  270078.669849
siesta:       Hartree =  180139.561942
siesta:       Edftu   =       0.000000
siesta:       Eso     =       0.000000
siesta:    Ext. field =       0.000000
siesta:   Exch.-corr. =  -81899.095955
siesta:  Ion-electron = -599935.627789
siesta:       Ion-ion = -143285.201189
siesta:       Ekinion =       0.000000
siesta:         Total = -374901.693141
siesta:         Fermi =      -2.044731

siesta: Atomic forces (eV/Ang):
siesta:      1   -0.259674    0.593713    1.326083
siesta:      2    0.483152    0.963685   -0.097052
siesta:      3   -0.338235   -0.602929   -0.639953
siesta:      4    0.551365   -0.578185    0.234616
siesta:      5    1.644901   -0.249189   -0.519870
siesta:      6   -1.053128    1.706998   -0.598443
siesta:      7   -0.927235   -1.430632    0.590843
siesta:      8    0.301393    0.579722    0.106595
siesta:      9   -0.658744    0.127322    0.136226
siesta:     10   -0.480829   -0.808296    0.759281
siesta:     11   -0.671583   -0.422089    0.368092
siesta:     12    0.999676   -1.269467    0.243348
siesta:     13    0.324085    1.512150   -1.166303
siesta:     14   -0.162812   -0.921261   -0.373979
siesta:     15    0.552483    0.594502   -0.439807
siesta:     16   -0.457344    0.466518    0.263878
siesta:     17   -0.132685   -0.846982   -0.495618
siesta:     18    0.861252    0.824415    0.186862
siesta:     19   -1.411569   -0.508535    0.470383
siesta:     20   -0.312338    0.157485   -1.382678
siesta:     21    1.024376    0.195009   -0.553845
siesta:     22    0.365966    0.043980    1.437161
siesta:     23    0.551761    0.046941   -0.329181
siesta:     24   -0.108610   -0.911571    1.747260
siesta:     25   -1.543412    0.226288   -0.787113
siesta:     26    0.861020    0.735153    0.169511
siesta:     27   -0.320737   -0.240466   -0.477999
siesta:     28    0.450607    0.199266   -0.579407
siesta:     29   -0.228889    1.295359    0.828572
siesta:     30   -0.653867   -0.874225    0.812746
siesta:     31    0.651072   -0.255288   -0.692214
siesta:     32    0.424026   -0.179681    0.057799
siesta:     33   -0.352883   -0.025041    0.610159
siesta:     34    0.082859   -0.935846   -0.106199
siesta:     35    0.078361   -0.203084   -0.491800
siesta:     36    0.424304    0.300958   -1.502994
siesta:     37   -0.535751    1.164922    0.847317
siesta:     38   -0.192719   -0.877141   -0.615179
siesta:     39    0.038879    0.515207    0.489005
siesta:     40    0.188247   -0.675546    0.339813
siesta:     41   -0.832453   -0.599421   -0.022017
siesta:     42    0.040849    0.900052   -0.485631
siesta:     43    0.659320   -0.577699    0.911717
siesta:     44   -0.608403   -0.357749   -0.597236
siesta:     45   -0.484483    0.468500   -0.530415
siesta:     46    0.965393    0.311816   -0.519481
siesta:     47    0.120715    0.437495    0.401235
siesta:     48    1.389538   -0.484551    0.173072
siesta:     49   -1.140861   -0.155457    0.426180
siesta:     50    0.710418    0.655934    0.023929
siesta:     51    0.221626   -0.903234    0.385001
siesta:     52   -0.850915    0.378665   -0.445715
siesta:     53    0.512099   -0.053317    0.126668
siesta:     54   -0.371631   -0.565373   -0.503270
siesta:     55    0.021400    1.540160    0.000891
siesta:     56   -0.488795    0.311643   -0.051741
siesta:     57    0.455208   -0.385878    0.751773
siesta:     58   -0.043952   -1.017104   -0.507598
siesta:     59   -0.673909    0.761255   -0.538492
siesta:     60    0.061339    1.433720    0.868824
[...]
siesta:   1268    0.784397    0.332193    0.684526
siesta:   1269   -1.459723    0.357501    0.519523
siesta:   1270   -0.321771    0.005988    0.248546
siesta:   1271    0.321870   -0.147463    0.360781
siesta:   1272   -0.643545   -0.424398    0.149391
siesta:   1273   -0.741781    0.615324    0.047095
siesta:   1274    0.185666   -0.394785    0.091393
siesta:   1275    0.068069    0.240424   -0.037011
siesta:   1276    0.017815   -0.035801    0.019453
siesta:   1277   -0.156868   -0.101604   -0.341098
siesta:   1278   -0.182689    0.761341   -0.646899
siesta:   1279   -0.118483    0.050430   -0.186907
siesta:   1280    0.372269    0.513168   -0.307494
siesta:   1281   -0.492917   -0.453472   -0.809785
siesta:   1282    0.756360   -0.339583   -0.354769
siesta: ----------------------------------------
siesta:    Tot    0.498288   -0.589277   -0.150278

siesta: Stress tensor (static) (eV/Ang**3):
siesta:     0.000700    0.000319    0.002497
siesta:     0.000319   -0.000303   -0.000044
siesta:     0.002497   -0.000044    0.000816

siesta: Cell volume =      13041.289483 Ang**3

siesta: Pressure (static):
siesta:                Solid            Molecule  Units
siesta:          -0.00000440         -0.00027767  Ry/Bohr**3
siesta:          -0.00040436         -0.02549508  eV/Ang**3
siesta:          -0.64786254        -40.84806289  kBar
(Free)E+ p_basis*V_orbitals  =     -374626.151998
(Free)Eharris+ p_basis*V_orbitals  =     -374626.151971
     spin moment: S , {S} =    1.01933       0.0       0.0   1.01933

cite: Please see "optical.bib" for an exhaustive BiBTeX file.
cite: Please clearly indicate Siesta version in published work: 4.1.5
cite: This calculation has made use of the following articles
cite: which are encouraged to be cited in a published work.
        Primary SIESTA paper
          DOI: www.doi.org/10.1088/0953-8984/14/11/302

>> End of run:   2-AUG-2023  12:34:37
Job completed