>> Start of run:   2-AUG-2023  10:47:26

reinit: Reading from standard input
reinit: Dumped input in INPUT_TMP.49525
************************** Dump of input data file ****************************
SystemName          optical
SystemLabel         optical
NumberOfAtoms       1282
NumberOfSpecies     4
%block ChemicalSpeciesLabel
 1   1   H
 2   6   C
 3   9   F
 4  47   Ag
%endblock ChemicalSpeciesLabel
LatticeConstant 1.0 Ang
UseStructFile .true.
%block LatticeParameters
  22.534   24.472   23.649   90.0 90.0 90.0
%endblock LatticeParameters
AtomicCoordinatesFormat  Ang
AtomicCoordinatesFormat Ang
%block WaveFuncKPoints
#   0.000   0.000   0.000 from 210 to 225 # gamma point, start MO, end MO
%endblock WavefuncKPoints
SpinPolarized .true.
MD.TypeOfRun  CG
MD.NumCGsteps 0
MD.VariableCell .false.
SolutionMethod diagon
XC.functional GGA
XC.authors PBE
PAO.BasisSize   DZP
DM.NumberPulay 7
DM.MixingWeight 0.1
DM.NumberKick 50
DM.KickMixingWeight 0.01
MaxSCFIterations 100
WriteMullikenPop 1
UseSaveData .true.
SaveRho .true.
LocalDensityOfStates .true.
WriteCoorXmol           .true.
WriteWaveFunctions      .true.
WriteEigenvalues        .true.
WriteDenchar            .true.
WriteDM                 .true.
WriteMDXmol             .true.
WriteDM.NetCDF          .true.
WriteDMHS.NetCDF        .true.
WriteKpoints            .true.
LongOutput              .true.
COOP.Write              .true.
************************** End of input data file *****************************
*** WARNING:  FDF module: fdf_read: block WaveFuncKPoints is empty...

reinit: -----------------------------------------------------------------------
reinit: System Name: optical
reinit: -----------------------------------------------------------------------
reinit: System Label: optical
reinit: -----------------------------------------------------------------------

initatom: Reading input for the pseudopotentials and atomic orbitals ----------
Species number:   1 Atomic number:    1 Label: H
Species number:   2 Atomic number:    6 Label: C
Species number:   3 Atomic number:    9 Label: F
Species number:   4 Atomic number:   47 Label: Ag

Ground state valence configuration:   1s01
Reading pseudopotential information in formatted form from H.psf

Valence configuration for pseudopotential generation:
1s( 1.00) rc: 1.33
2p( 0.00) rc: 1.33
3d( 0.00) rc: 0.37
4f( 0.00) rc: 1.33
Ground state valence configuration:   2s02  2p02
Reading pseudopotential information in formatted form from C.psf

Valence configuration for pseudopotential generation:
2s( 2.00) rc: 1.56
2p( 2.00) rc: 1.56
3d( 0.00) rc: 1.56
4f( 0.00) rc: 1.56
Ground state valence configuration:   2s02  2p05
Reading pseudopotential information in formatted form from F.psf

Valence configuration for pseudopotential generation:
2s( 2.00) rc: 1.41
2p( 5.00) rc: 1.41
3d( 0.00) rc: 1.41
4f( 0.00) rc: 1.41
Ground state valence configuration:   5s01  4d10
Reading pseudopotential information in formatted form from Ag.psf

Valence configuration for pseudopotential generation:
5s( 1.00) rc: 2.52
5p( 0.00) rc: 2.72
4d(10.00) rc: 2.52
4f( 0.00) rc: 2.52
For H, standard SIESTA heuristics set lmxkb to 2
 (one more than the basis l, including polarization orbitals).
Use PS.lmax or PS.KBprojectors blocks to override.
For C, standard SIESTA heuristics set lmxkb to 3
 (one more than the basis l, including polarization orbitals).
Use PS.lmax or PS.KBprojectors blocks to override.
For F, standard SIESTA heuristics set lmxkb to 3
 (one more than the basis l, including polarization orbitals).
Use PS.lmax or PS.KBprojectors blocks to override.
For Ag, standard SIESTA heuristics set lmxkb to 3
 (one more than the basis l, including polarization orbitals).
Use PS.lmax or PS.KBprojectors blocks to override.
Ag: nkbl increased for l=1 due to the presence of a polarization orbital

<basis_specs>
H                    Z=   1    Mass=  1.0100        Charge= 0.17977+309
Lmxo=0 Lmxkb= 2    BasisType=split      Semic=F
L=0  Nsemic=0  Cnfigmx=1
          i=1  nzeta=2  polorb=1  (1s)
            splnorm:   0.15000
               vcte:    0.0000
               rinn:    0.0000
               qcoe:    0.0000
               qyuk:    0.0000
               qwid:   0.10000E-01
                rcs:    0.0000      0.0000
            lambdas:    1.0000      1.0000
L=0  Nkbl=1  erefs: 0.17977+309
L=1  Nkbl=1  erefs: 0.17977+309
L=2  Nkbl=1  erefs: 0.17977+309
</basis_specs>

atom: Called for H                     (Z =   1)

read_vps: Pseudopotential generation method:
read_vps: ATM 3.2.2 Troullier-Martins
Valence charge for ps generation:    1.00000

xc_check: Exchange-correlation functional:
xc_check: GGA Perdew, Burke & Ernzerhof 1996
V l=0 = -2*Zval/r beyond r=  1.2656
V l=1 = -2*Zval/r beyond r=  1.2498
V l=2 = -2*Zval/r beyond r=  0.3563
All V_l potentials equal beyond r=  1.2656
This should be close to max(r_c) in ps generation
All pots = -2*Zval/r beyond r=  1.2656

VLOCAL1: 99.0% of the norm of Vloc inside     27.100 Ry
VLOCAL1: 99.9% of the norm of Vloc inside     61.762 Ry
atom: Maximum radius for 4*pi*r*r*local-pseudopot. charge    1.48935
atom: Maximum radius for r*vlocal+2*Zval:    1.24984
GHOST: No ghost state for L =  0
GHOST: No ghost state for L =  1
GHOST: No ghost state for L =  2

KBgen: Kleinman-Bylander projectors:
   l= 0   rc=  1.398961   el= -0.477209   Ekb= -2.001853   kbcos= -0.352188
   l= 1   rc=  1.470814   el=  0.001006   Ekb= -0.423408   kbcos= -0.024395
   l= 2   rc=  1.489346   el=  0.001895   Ekb= -0.481957   kbcos= -0.001574

KBgen: Total number of Kleinman-Bylander projectors:    9
atom: -------------------------------------------------------------------------

atom: SANKEY-TYPE ORBITALS:
atom: Selected multiple-zeta basis: split

SPLIT: Orbitals with angular momentum L= 0

SPLIT: Basis orbitals for state 1s

SPLIT: PAO cut-off radius determined from an
SPLIT: energy shift=  0.020000 Ry

   izeta = 1
                 lambda =    1.000000
                     rc =    4.708991
                 energy =   -0.457764
                kinetic =    0.979534
    potential(screened) =   -1.437298
       potential(ionic) =   -1.965615

   izeta = 2
                 rmatch =    3.759707
              splitnorm =    0.150000
                 energy =   -0.339003
                kinetic =    1.582546
    potential(screened) =   -1.921548
       potential(ionic) =   -2.471878

POLgen: Perturbative polarization orbital with L=  1

POLgen: Polarization orbital for state 1s

   izeta = 1
                     rc =    4.708991
                 energy =    0.764951
                kinetic =    1.476882
    potential(screened) =   -0.711931
       potential(ionic) =   -1.204335
atom: Total number of Sankey-type orbitals:  5

atm_pop: Valence configuration (for local Pseudopot. screening):
 1s( 1.00)
Vna: chval, zval:    1.00000   1.00000

Vna:  Cut-off radius for the neutral-atom potential:   4.708991

atom: _________________________________________________________________________

<basis_specs>
C                    Z=   6    Mass=  12.010        Charge= 0.17977+309
Lmxo=1 Lmxkb= 3    BasisType=split      Semic=F
L=0  Nsemic=0  Cnfigmx=2
          i=1  nzeta=2  polorb=0  (2s)
            splnorm:   0.15000
               vcte:    0.0000
               rinn:    0.0000
               qcoe:    0.0000
               qyuk:    0.0000
               qwid:   0.10000E-01
                rcs:    0.0000      0.0000
            lambdas:    1.0000      1.0000
L=1  Nsemic=0  Cnfigmx=2
          i=1  nzeta=2  polorb=1  (2p)
            splnorm:   0.15000
               vcte:    0.0000
               rinn:    0.0000
               qcoe:    0.0000
               qyuk:    0.0000
               qwid:   0.10000E-01
                rcs:    0.0000      0.0000
            lambdas:    1.0000      1.0000
L=0  Nkbl=1  erefs: 0.17977+309
L=1  Nkbl=1  erefs: 0.17977+309
L=2  Nkbl=1  erefs: 0.17977+309
L=3  Nkbl=1  erefs: 0.17977+309
</basis_specs>

[...]

SPLIT: Basis orbitals for state 2p

[...]

POLgen: Polarization orbital for state 2p

[...]

atm_pop: Valence configuration (for local Pseudopot. screening):
 2s( 2.00)
 2p( 2.00)
Vna: chval, zval:    4.00000   4.00000

[...]

<basis_specs>
F                    Z=   9    Mass=  19.000        Charge= 0.17977+309
Lmxo=1 Lmxkb= 3    BasisType=split      Semic=F
L=0  Nsemic=0  Cnfigmx=2
          i=1  nzeta=2  polorb=0  (2s)
            splnorm:   0.15000
               vcte:    0.0000
               rinn:    0.0000
               qcoe:    0.0000
               qyuk:    0.0000
               qwid:   0.10000E-01
                rcs:    0.0000      0.0000
            lambdas:    1.0000      1.0000
L=1  Nsemic=0  Cnfigmx=2
          i=1  nzeta=2  polorb=1  (2p)
            splnorm:   0.15000
               vcte:    0.0000
               rinn:    0.0000
               qcoe:    0.0000
               qyuk:    0.0000
               qwid:   0.10000E-01
                rcs:    0.0000      0.0000
            lambdas:    1.0000      1.0000
L=0  Nkbl=1  erefs: 0.17977+309
L=1  Nkbl=1  erefs: 0.17977+309
L=2  Nkbl=1  erefs: 0.17977+309
L=3  Nkbl=1  erefs: 0.17977+309
</basis_specs>

[...]

VLOCAL1: 99.0% of the norm of Vloc inside     24.916 Ry
VLOCAL1: 99.9% of the norm of Vloc inside     56.784 Ry
atom: Maximum radius for 4*pi*r*r*local-pseudopot. charge    1.61221
atom: Maximum radius for r*vlocal+2*Zval:    1.38760
GHOST: No ghost state for L =  0
GHOST: No ghost state for L =  1
GHOST: No ghost state for L =  2
GHOST: No ghost state for L =  3

[...]

SPLIT: Basis orbitals for state 2p

[...]

POLgen: Polarization orbital for state 2p

[...]

atm_pop: Valence configuration (for local Pseudopot. screening):
 2s( 2.00)
 2p( 5.00)
Vna: chval, zval:    7.00000   7.00000

[...]

<basis_specs>
Ag                   Z=  47    Mass=  107.87        Charge= 0.17977+309
Lmxo=2 Lmxkb= 3    BasisType=split      Semic=F
L=0  Nsemic=0  Cnfigmx=5
          i=1  nzeta=2  polorb=1  (5s)
            splnorm:   0.15000
               vcte:    0.0000
               rinn:    0.0000
               qcoe:    0.0000
               qyuk:    0.0000
               qwid:   0.10000E-01
                rcs:    0.0000      0.0000
            lambdas:    1.0000      1.0000
L=1  Nsemic=0  Cnfigmx=5
L=2  Nsemic=0  Cnfigmx=4
          i=1  nzeta=2  polorb=0  (4d)
            splnorm:   0.15000
               vcte:    0.0000
               rinn:    0.0000
               qcoe:    0.0000
               qyuk:    0.0000
               qwid:   0.10000E-01
                rcs:    0.0000      0.0000
            lambdas:    1.0000      1.0000
L=0  Nkbl=1  erefs: 0.17977+309
L=1  Nkbl=2  erefs: 0.17977+309 0.17977+309
L=2  Nkbl=1  erefs: 0.17977+309
L=3  Nkbl=1  erefs: 0.17977+309
</basis_specs>

atom: Called for Ag                    (Z =  47)

read_vps: Pseudopotential generation method:
read_vps: ATM 3.2.2 Troullier-Martins
Valence charge for ps generation:   11.00000

xc_check: Exchange-correlation functional:
xc_check: GGA Perdew, Burke & Ernzerhof 1996
V l=0 = -2*Zval/r beyond r=  2.4592
V l=1 = -2*Zval/r beyond r=  2.6507
V l=2 = -2*Zval/r beyond r=  2.4592
V l=3 = -2*Zval/r beyond r=  2.4592
All V_l potentials equal beyond r=  2.6507
[...]
              0.000   0.005   0.001  -0.006   0.072   0.069   0.084
1268  5.494   0.233   0.196   0.974   0.975   0.969   0.984   0.961  -0.003
             -0.004  -0.002  -0.008   0.001   0.071   0.070   0.076
1269  5.456   0.186   0.212   0.965   0.950   0.959   0.979   0.949   0.002
              0.010   0.006  -0.001   0.011   0.077   0.079   0.073
1270  5.540   0.219   0.235   0.962   0.936   0.936   0.957   0.940   0.007
              0.014   0.013   0.007   0.012   0.110   0.114   0.079
1271  5.533   0.186   0.243   0.960   0.937   0.938   0.958   0.953   0.007
              0.015   0.012   0.007   0.007   0.110   0.117   0.081
1272  5.552   0.298   0.185   0.942   0.957   0.935   0.945   0.954   0.013
              0.007   0.012   0.011   0.008   0.077   0.109   0.099
1273  5.516   0.155   0.279   0.944   0.953   0.931   0.943   0.943   0.012
              0.011   0.015   0.014   0.014   0.091   0.111   0.101
1274  5.514   0.151   0.261   0.943   0.956   0.936   0.944   0.958   0.013
              0.008   0.013   0.011   0.008   0.087   0.120   0.103
1275  5.571   0.295   0.179   0.954   0.956   0.940   0.944   0.960   0.006
              0.006   0.010   0.010   0.006   0.088   0.113   0.103
1276  5.526   0.085   0.271   0.942   0.946   0.939   0.945   0.942   0.015
              0.015   0.016   0.015   0.015   0.127   0.127   0.127
1277  5.560   0.287   0.185   0.951   0.958   0.953   0.958   0.940   0.006
              0.006   0.007   0.004   0.012   0.096   0.087   0.110
1278  5.484   0.231   0.209   0.954   0.956   0.967   0.951   0.982   0.004
              0.009   0.000   0.007  -0.003   0.073   0.071   0.072
1279  5.551   0.263   0.200   0.941   0.957   0.954   0.957   0.947   0.011
              0.005   0.007   0.007   0.008   0.105   0.089   0.101
1280  5.520   0.206   0.218   0.940   0.955   0.948   0.956   0.931   0.013
              0.009   0.012   0.008   0.018   0.112   0.095   0.102
1281  5.467   0.224   0.204   0.970   0.961   0.953   0.961   0.964   0.000
              0.004   0.008   0.004   0.001   0.075   0.071   0.066
1282  5.499   0.265   0.190   0.972   0.970   0.968   0.984   0.961  -0.003
             -0.004  -0.001  -0.007   0.002   0.063   0.076   0.062

mulliken: Qtot =     2673.000

coxmol: Writing XMOL coordinates into file optical.xyz
Writing WFSX for COOP/COHP in optical.fullBZ.WFSX

writewave: Wave Functions Coefficients

     Number of k-points =        1
        Number of Spins =        2
   Number of basis orbs =    13386

            k-point =        1    0.000000  0.000000  0.000000
     Spin component =        1
 Num. wavefunctions =    13386
Use readwfsx utility to print wavefunction coefficients from WFSX file

            k-point =        1    0.000000  0.000000  0.000000
     Spin component =        2
 Num. wavefunctions =    13386
Use readwfsx utility to print wavefunction coefficients from WFSX file

siesta: Eigenvalues (eV):
  ik is       eps
   1  1  -31.7882  -31.7754  -31.6745  -31.6662  -31.6340  -31.6157  -31.6101  -31.6080  -31.5849  -31.5727
         -31.5703  -31.5675  -31.5466  -31.5454  -31.5420  -31.5401  -31.5200  -31.5134  -31.5120  -31.5000
  -31.4982  -31.4925  -31.4882  -31.4851  -31.4837  -31.4798  -31.4688  -31.4641  -31.4554  -31.4541
  -31.4533  -31.4473  -31.4458  -31.4412  -31.4410  -31.4366  -31.4363  -31.4348  -31.4323  -31.4279
  -31.4250  -31.4243  -31.4239  -31.4175  -31.4158  -31.4143  -31.4083  -31.4074  -31.3972  -31.3941
  -31.3886  -31.3869  -31.3844  -31.3792  -31.3764  -31.3681  -31.3645  -31.3619  -31.3615  -31.3574
  -31.3564  -31.3485  -31.3450  -31.3439  -31.3387  -31.3307  -31.3287  -31.3268  -31.3212  -31.3180
  -31.3163  -31.3136  -31.3098  -31.3095  -31.3045  -31.3013  -31.2956  -31.2950  -31.2936  -31.2830
  -31.2809  -31.2790  -31.2770  -31.2739  -31.2695  -31.2605  -31.2542  -31.2491  -31.2412  -31.2376
  -31.2337  -31.2308  -31.2268  -31.2251  -31.2234  -31.2230  -31.2212  -31.2203  -31.2190  -31.2187
  -31.2172  -31.2143  -31.2092  -31.2081  -31.2047  -31.1988  -31.1968  -31.1927  -31.1908  -31.1905
  -31.1835  -31.1788  -31.1742  -31.1738  -31.1721  -31.1675  -31.1585  -31.1564  -31.1506  -31.1453
  -31.1417  -31.1390  -31.1366  -31.1360  -31.1338  -31.1300  -31.1275  -31.1269  -31.1243  -31.1176
  -31.1146  -31.1127  -31.1092  -31.1052  -31.1031  -31.1025  -31.1003  -31.0945  -31.0921  -31.0909
  -31.0848  -31.0835  -31.0834  -31.0772  -31.0681  -31.0671  -31.0551  -31.0478  -31.0468  -31.0448
  -31.0448  -31.0414  -31.0395  -31.0392  -31.0364  -31.0355  -31.0348  -31.0331  -31.0331  -31.0244
  -31.0193  -31.0094  -31.0072  -31.0046  -31.0038  -31.0026  -30.9995  -30.9992  -30.9982  -30.9892
  -30.9785  -30.9724  -30.9652  -30.9624  -30.9578  -30.9563  -30.9518  -30.9439  -30.9420  -30.9277
  -30.9224  -30.9136  -30.9126  -30.9083  -30.9067  -30.8991  -30.8957  -30.8957  -30.8929  -30.8868
  -30.8743  -30.8661  -30.8623  -30.8493  -30.8297  -30.8225  -30.8198  -30.8182  -30.8114  -30.7978
  -30.7976  -30.7754  -30.7656  -30.7511  -30.7406  -30.7387  -30.6883  -30.6862  -29.9814  -29.9763
  -29.9008  -29.8650  -29.8415  -29.8201  -29.7836  -29.7799  -29.7683  -29.7651  -29.7586  -29.7555
  -29.7513  -29.7496  -29.7432  -29.7367  -29.7296  -29.7285  -29.7223  -29.7203  -29.7109  -29.7104
  -29.7094  -29.7026  -29.6837  -29.6751  -29.6745  -29.6701  -29.6691  -29.6679  -29.6670  -29.6664
  -29.6610  -29.6547  -29.6494  -29.6487  -29.6460  -29.6447  -29.6380  -29.6357  -29.6309  -29.6246
  -29.6152  -29.6143  -29.6136  -29.6105  -29.6089  -29.6089  -29.6047  -29.6012  -29.5909  -29.5907
  -29.5904  -29.5883  -29.5843  -29.5766  -29.5760  -29.5708  -29.5643  -29.5640  -29.5572  -29.5525
  -29.5488  -29.5420  -29.5409  -29.5391  -29.5351  -29.5273  -29.5257  -29.5254  -29.5213  -29.5198
  -29.5183  -29.5173  -29.5161  -29.5138  -29.5129  -29.5124  -29.5101  -29.5084  -29.5003  -29.4985
  -29.4935  -29.4915  -29.4872  -29.4777  -29.4772  -29.4684  -29.4675  -29.4646  -29.4644  -29.4564
  -29.4523  -29.4520  -29.4505  -29.4444  -29.4398  -29.4387  -29.4367  -29.4364  -29.4347  -29.4333
  -29.4328  -29.4303  -29.4259  -29.4227  -29.4220  -29.4170  -29.4151  -29.4109  -29.4056  -29.4029
  -29.4028  -29.4019  -29.3975  -29.3912  -29.3893  -29.3892  -29.3834  -29.3774  -29.3763  -29.3754
  -29.3721  -29.3713  -29.3693  -29.3628  -29.3561  -29.3539  -29.3534  -29.3483  -29.3357  -29.3353
  -29.3352  -29.3343  -29.3337  -29.3334  -29.3268  -29.3251  -29.3240  -29.3227  -29.3223  -29.3203
  -29.3133  -29.3048  -29.3043  -29.3038  -29.3032  -29.2922  -29.2909  -29.2837  -29.2813  -29.2782
  -29.2781  -29.2764  -29.2676  -29.2673  -29.2672  -29.2635  -29.2584  -29.2573  -29.2501  -29.2492
  -29.2483  -29.2464  -29.2405  -29.2399  -29.2348  -29.2333  -29.2327  -29.2253  -29.2221  -29.2214
  -29.2186  -29.2153  -29.2140  -29.2056  -29.2031  -29.1907  -29.1839  -29.1661  -29.1598  -29.1435
  -29.1415  -29.1346  -29.1323  -29.1317  -29.1249  -29.1203  -29.1176  -29.1139  -29.1126  -29.1120
  -29.1113  -29.1025  -29.0869  -29.0735  -29.0692  -29.0668  -29.0615  -29.0563  -29.0399  -29.0346
  -28.9891  -28.9596  -28.9513  -28.9485  -28.9398  -28.9367  -20.4680  -20.4008  -20.3880  -20.3599
  -20.3471  -20.3309  -20.3240  -20.3110  -20.3019  -20.2903  -20.2791  -20.2740  -20.2427  -20.2415
  -20.2362  -20.2214  -20.2056  -20.1982  -20.1912  -20.1872  -20.1774  -20.1629  -20.1562  -20.1531
  -20.1508  -20.1448  -20.1393  -20.1374  -20.1296  -20.1261  -20.1206  -20.1195  -20.1161  -20.1031
  -20.0979  -20.0953  -20.0883  -20.0811  -20.0749  -20.0703  -20.0673  -20.0628  -20.0560  -20.0435
  -20.0381  -20.0312  -20.0205  -20.0197  -20.0137  -20.0046  -20.0032  -20.0004  -19.9848  -19.9773
  -19.9612  -19.9582  -19.9535  -19.9510  -19.9350  -19.9272  -19.9173  -19.9114  -19.9067  -19.8918
  -19.8881  -19.8785  -19.8681  -19.8659  -19.8531  -19.8510  -19.8418  -19.8363  -19.8235  -19.8155
  -19.8099  -19.7980  -19.7868  -19.7808  -19.7708  -19.7595  -19.7482  -19.7391  -19.7227  -19.7173
  -19.7030  -19.6940  -19.6797  -19.6727  -19.6640  -19.6492  -19.6380  -19.6328  -19.6283  -19.6063
  -19.5860  -19.5744  -19.5641  -19.5581  -19.5509  -19.5316  -19.5221  -19.5067  -19.4939  -19.4866
  -19.4682  -19.4553  -19.4471  -19.4385  -19.4209  -19.3968  -19.3857  -19.3808  -19.3726  -19.3461
  -19.3439  -19.3248  -19.3183  -19.3040  -19.2804  -19.2606  -19.2555  -19.2351  -19.2238  -19.2054
  -19.1899  -19.1764  -19.1681  -19.1423  -19.1317  -19.1232  -19.0994  -19.0916  -19.0772  -19.0580
  -19.0358  -19.0169  -19.0062  -18.9806  -18.9694  -18.9602  -18.9388  -18.9147  -18.9035  -18.8892
  -18.8756  -18.8636  -18.8474  -18.8235  -18.8158  -18.7988  -18.7829  -18.7618  -18.7452  -18.7318
  -18.7150  -18.7008  -18.6891  -18.6749  -18.6684  -18.6279  -18.6244  -18.5915  -18.5818  -18.5699
  -18.5479  -18.5433  -18.5360  -18.4951  -18.4774  -18.4649  -18.4638  -18.4376  -18.4187  -18.3926
  -18.3800  -18.3791  -18.3734  -18.3475  -18.3411  -18.3187  -18.3067  -18.2891  -18.2818  -18.2567
[...]
  100.6606  100.7102  100.7318  100.7935  100.7952  100.8526  100.8820  100.9140  100.9241  100.9470
  100.9614  100.9851  101.0483  101.0744  101.0951  101.1423  101.1866  101.2134  101.2345  101.2473
  101.3033  101.3223  101.3310  101.3606  101.3750  101.4160  101.4814  101.5118  101.5321  101.5491
  101.6046  101.6151  101.6410  101.7017  101.7143  101.7635  101.7932  101.8555  101.8675  101.8870
  101.9706  101.9861  102.0020  102.0464  102.0601  102.0810  102.0925  102.1700  102.1967  102.2363
  102.2636  102.2865  102.3218  102.3563  102.4160  102.4735  102.4800  102.5372  102.5627  102.6308
  102.6558  102.7022  102.7333  102.7706  102.7951  102.8364  102.8456  102.8887  102.9406  103.0109
  103.0378  103.0831  103.1318  103.1442  103.2176  103.2420  103.3041  103.3585  103.3743  103.4183
  103.4353  103.5101  103.5365  103.5606  103.6315  103.6626  103.6982  103.8108  103.8371  103.9412
  103.9967  104.0366  104.0532  104.1226  104.1307  104.1908  104.2163  104.2453  104.2670  104.3077
  104.3794  104.4708  104.5159  104.5265  104.5996  104.6302  104.6991  104.7091  104.7629  104.7814
  104.8957  104.9768  105.0196  105.0608  105.1297  105.1812  105.2035  105.2365  105.2774  105.4223
  105.4605  105.5158  105.5616  105.5806  105.6190  105.6649  105.7055  105.8041  105.8949  105.9728
  106.0871  106.2203  106.2647  106.3314  106.4132  106.7737  106.8220  106.8351  107.0457  107.3370
  108.1548  108.6584  108.8151  109.1164  109.2477  110.0670
siesta: Fermi energy =      -2.046796 eV

siesta: Program's energy decomposition (eV):
siesta: Ebs     =    -75963.820955
siesta: Eions   =    528240.072706
siesta: Ena     =     58052.820407
siesta: Ekin    =    270068.785230
siesta: Enl     =    -93465.553935
siesta: Eso     =         0.000000
siesta: Edftu   =         0.000000
siesta: DEna    =       233.848121
siesta: DUscf   =       347.755180
siesta: DUext   =         0.000000
siesta: Exc     =    -81898.678679
siesta: eta*DQ  =         0.000000
siesta: Emadel  =         0.000000
siesta: Emeta   =         0.000000
siesta: Emolmec =         0.000000
siesta: Ekinion =         0.000000
siesta: Eharris =   -374901.096382
siesta: Etot    =   -374901.096383
siesta: FreeEng =   -374901.160875

siesta: Final energy (eV):
siesta:  Band Struct. =  -75963.820955
siesta:       Kinetic =  270068.785230
siesta:       Hartree =  181560.851180
siesta:       Edftu   =       0.000000
siesta:       Eso     =       0.000000
siesta:    Ext. field =       0.000000
siesta:   Exch.-corr. =  -81898.678679
siesta:  Ion-electron = -602774.234332
siesta:       Ion-ion = -141857.819782
siesta:       Ekinion =       0.000000
siesta:         Total = -374901.096383
siesta:         Fermi =      -2.046796

siesta: Atomic forces (eV/Ang):
siesta:      1    0.345860   -1.316884   -0.325037
siesta:      2   -0.533497   -0.120651    0.051276
siesta:      3   -0.255627    0.646448   -0.520686
siesta:      4    0.542992    0.200641    0.634661
siesta:      5   -1.090708    0.173214    0.904247
siesta:      6   -0.711088   -0.256796   -0.531884
siesta:      7    1.445959    0.646651   -0.382655
siesta:      8   -0.197701    0.146424    1.268741
siesta:      9    0.352310   -0.342404   -0.747121
siesta:     10    0.533904    0.247254    0.159519
siesta:     11   -0.492452    0.601439   -0.013694
siesta:     12   -1.415851    0.320965   -0.777801
siesta:     13    0.901835   -1.378796   -0.082243
siesta:     14    0.296643    0.404277    0.489481
siesta:     15    0.953082   -0.296059    0.407466
siesta:     16   -0.162747    0.387972    0.453778
siesta:     17    0.534838   -0.350198   -0.318952
siesta:     18   -0.761670    0.793094    0.109008
siesta:     19   -0.277321   -1.101117   -0.777622
siesta:     20    0.617768    0.151833   -0.765867
siesta:     21    0.170611    0.628215    0.696465
siesta:     22   -1.156708   -0.145008   -0.163880
siesta:     23    0.277500   -1.006078   -0.360566
siesta:     24    1.779872    0.730081    0.039471
siesta:     25   -0.687486   -0.092186    0.598546
siesta:     26    0.628312    0.790006    0.166493
siesta:     27   -0.880003   -0.606137   -0.293385
siesta:     28    0.114121    0.243465   -1.063504
siesta:     29   -0.038378    1.251717    0.025123
siesta:     30   -0.010476   -0.251544    1.889062
siesta:     31   -0.133891   -0.990114   -1.488673
siesta:     32   -0.167601   -0.083014   -0.610679
siesta:     33    0.254554    0.488312    0.575680
siesta:     34    0.227624   -1.042834    0.157165
siesta:     35   -0.525299   -0.456780   -0.150054
siesta:     36   -0.809221    1.394083   -0.095296
siesta:     37    1.312520   -0.448881    0.423756
siesta:     38   -0.477998   -0.681997   -0.030496
siesta:     39   -1.042196   -0.228841    0.001525
siesta:     40    0.025444    0.726367   -0.170260
siesta:     41   -0.280454   -0.332887    0.820320
siesta:     42    1.073498    0.887670   -1.188363
siesta:     43    0.289409   -1.301096    1.158392
siesta:     44    0.050969    0.051353    0.497172
siesta:     45   -0.451170    0.257012   -0.433212
siesta:     46    0.487446   -0.171383   -0.440249
siesta:     47   -0.668852    0.649552    0.957617
siesta:     48   -0.478785    0.650098    1.136331
siesta:     49    0.174149   -0.704932   -1.200492
siesta:     50    0.445280   -0.600005    0.187421
siesta:     51    0.104059   -0.558396   -0.545035
siesta:     52    1.215629   -0.049744   -0.042337
siesta:     53   -0.529428    0.347715    0.340639
siesta:     54    0.258028    1.452815    0.752579
siesta:     55   -1.378090   -0.341614   -0.126367
siesta:     56    0.888306   -1.136503   -0.826658
siesta:     57    0.335547   -0.494017   -0.273761
siesta:     58    0.412537    0.384305    0.045610
siesta:     59    0.056498    0.603732   -0.625137
siesta:     60   -0.134750    1.538534    1.770053
[...]
siesta:   1268    0.848049    0.217142    0.613442
siesta:   1269   -0.544555    0.704308    0.714277
siesta:   1270   -0.206762    0.024423    0.040240
siesta:   1271    0.615148   -0.236196    0.234010
siesta:   1272   -0.126435   -0.339587    0.023777
siesta:   1273   -0.441711    0.591072   -0.130970
siesta:   1274    0.318792   -0.399995   -0.010761
siesta:   1275    0.233916    0.156551   -0.024992
siesta:   1276    0.012508   -0.020030    0.060542
siesta:   1277    0.021789   -0.299557   -0.229469
siesta:   1278   -0.365282    1.019608   -0.593843
siesta:   1279   -0.051933    0.197729   -0.110491
siesta:   1280    0.624066    0.298781   -0.457037
siesta:   1281   -0.612144   -0.322672   -0.713221
siesta:   1282    0.646747   -0.461055   -0.448880
siesta: ----------------------------------------
siesta:    Tot   -0.041588   -0.383704    0.299983

siesta: Stress tensor (static) (eV/Ang**3):
siesta:    -0.000966    0.000069    0.001408
siesta:     0.000069    0.005221   -0.000050
siesta:     0.001408   -0.000050   -0.003618

siesta: Cell volume =      13041.289483 Ang**3

siesta: Pressure (static):
siesta:                Solid            Molecule  Units
siesta:          -0.00000231          0.00009288  Ry/Bohr**3
siesta:          -0.00021202          0.00852774  eV/Ang**3
siesta:          -0.33970157         13.66309648  kBar
(Free)E+ p_basis*V_orbitals  =     -374625.561346
(Free)Eharris+ p_basis*V_orbitals  =     -374625.561345
     spin moment: S , {S} =    0.00000       0.0       0.0   0.00000

cite: Please see "optical.bib" for an exhaustive BiBTeX file.
cite: Please clearly indicate Siesta version in published work: 4.1.5
cite: This calculation has made use of the following articles
cite: which are encouraged to be cited in a published work.
        Primary SIESTA paper
          DOI: www.doi.org/10.1088/0953-8984/14/11/302

>> End of run:   2-AUG-2023  11:12:16
Job completed