>> Start of run:  11-SEP-2014   1:36:00

reinit: Reading from standard input
************************** Dump of input data file ****************************
SystemName      optical
SystemLabel     optical
NumberOfAtoms   1282
NumberOfSpecies 4
MD.TypeOfRun    CG
MD.NumCGsteps   1
MD.ConstantVolume  .true.
SolutionMethod  diagon
XC.functional   GGA
XC.authors      PBE
PAO.BasisSize   DZP
DM.NumberPulay  7
DM.MixingWeight 0.1
DirectPhi       .true.
MeshCutoff      500 Ry
MaxSCFiterations 200
UseSaveData     .true.
WriteMullikenPop 1
PAO.EnergyShift 0.001 Ry
WriteDM.NetCDF .false.
WriteDMHS.NetCDF .false.
%block ChemicalSpeciesLabel
 1   1   H
 2   6   C
 3   9   F
 4  47   Ag
%endblock ChemicalSpeciesLabel
LatticeConstant 1.0 Ang
%block LatticeParameters
  22.534   24.472   23.649   90.0 90.0 90.0
%endblock LatticeParameters
AtomicCoordinatesFormat Ang
%block AtomicCoordinatesAndAtomicSpecies < struct.coor
%endblock AtomicCoordinatesAndAtomicSpecies
************************** End of input data file *****************************

reinit: -----------------------------------------------------------------------
reinit: System Name: optical
reinit: -----------------------------------------------------------------------
reinit: System Label: optical
reinit: -----------------------------------------------------------------------

initatom: Reading input for the pseudopotentials and atomic orbitals ----------
 Species number:            1  Label: H Atomic number:           1
 Species number:            2  Label: C Atomic number:           6
 Species number:            3  Label: F Atomic number:           9
 Species number:            4  Label: Ag Atomic number:          47
Ground state valence configuration:   1s01
Reading pseudopotential information in formatted form from H.psf

Valence configuration for pseudopotential generation:
1s( 1.00) rc: 1.33
2p( 0.00) rc: 1.33
3d( 0.00) rc: 0.37
4f( 0.00) rc: 1.33
Ground state valence configuration:   2s02  2p02
Reading pseudopotential information in formatted form from C.psf

Valence configuration for pseudopotential generation:
2s( 2.00) rc: 1.56
2p( 2.00) rc: 1.56
3d( 0.00) rc: 1.56
4f( 0.00) rc: 1.56
Ground state valence configuration:   2s02  2p05
Reading pseudopotential information in formatted form from F.psf

Valence configuration for pseudopotential generation:
2s( 2.00) rc: 1.41
2p( 5.00) rc: 1.41
3d( 0.00) rc: 1.41
4f( 0.00) rc: 1.41
Ground state valence configuration:   5s01  4d10
Reading pseudopotential information in formatted form from Ag.psf

Valence configuration for pseudopotential generation:
5s( 1.00) rc: 2.52
5p( 0.00) rc: 2.72
4d(10.00) rc: 2.52
4f( 0.00) rc: 2.52
For H, standard SIESTA heuristics set lmxkb to 2
 (one more than the basis l, including polarization orbitals).
Use PS.lmax or PS.KBprojectors blocks to override.
For C, standard SIESTA heuristics set lmxkb to 3
 (one more than the basis l, including polarization orbitals).
Use PS.lmax or PS.KBprojectors blocks to override.
For F, standard SIESTA heuristics set lmxkb to 3
 (one more than the basis l, including polarization orbitals).
Use PS.lmax or PS.KBprojectors blocks to override.
For Ag, standard SIESTA heuristics set lmxkb to 3
 (one more than the basis l, including polarization orbitals).
Use PS.lmax or PS.KBprojectors blocks to override.

<basis_specs>
H                    Z=   1    Mass=  1.0100        Charge= 0.17977+309
Lmxo=0 Lmxkb= 2    BasisType=split      Semic=F
L=0  Nsemic=0  Cnfigmx=1
          n=1  nzeta=2  polorb=1
            splnorm:   0.15000
               vcte:    0.0000
               rinn:    0.0000
                rcs:    0.0000      0.0000
            lambdas:   1.00000     1.00000
L=0  Nkbl=1  erefs: 0.17977+309
L=1  Nkbl=1  erefs: 0.17977+309
L=2  Nkbl=1  erefs: 0.17977+309
</basis_specs>

atom: Called for H                     (Z =   1)

read_vps: Pseudopotential generation method:
read_vps: ATM 3.2.2 Troullier-Martins
Total valence charge:    1.00000

xc_check: Exchange-correlation functional:
xc_check: GGA Perdew, Burke & Ernzerhof 1996
V l=0 = -2*Zval/r beyond r=  1.2656
V l=1 = -2*Zval/r beyond r=  1.2498
V l=2 = -2*Zval/r beyond r=  0.3563
All V_l potentials equal beyond r=  1.2656
This should be close to max(r_c) in ps generation
All pots = -2*Zval/r beyond r=  1.2656

VLOCAL1: 99.0% of the norm of Vloc inside     27.100 Ry
VLOCAL1: 99.9% of the norm of Vloc inside     61.762 Ry
atom: Maximum radius for 4*pi*r*r*local-pseudopot. charge    1.48935
atom: Maximum radius for r*vlocal+2*Zval:    1.24984
GHOST: No ghost state for L =  0
GHOST: No ghost state for L =  1
GHOST: No ghost state for L =  2

KBgen: Kleinman-Bylander projectors:
   l= 0   rc=  1.398961   el= -0.477209   Ekb= -2.001853   kbcos= -0.352188
   l= 1   rc=  1.470814   el=  0.001006   Ekb= -0.423408   kbcos= -0.024395
   l= 2   rc=  1.489346   el=  0.001895   Ekb= -0.481957   kbcos= -0.001574

KBgen: Total number of  Kleinman-Bylander projectors:    9
atom: -------------------------------------------------------------------------

atom: SANKEY-TYPE ORBITALS:
atom: Selected multiple-zeta basis: split

SPLIT: Orbitals with angular momentum L= 0

SPLIT: Basis orbitals for state 1s

SPLIT: PAO cut-off radius determined from an
SPLIT: energy shift=  0.001000 Ry

   izeta = 1
                 lambda =    1.000000
                     rc =    7.026209
                 energy =   -0.476258
                kinetic =    0.873901
    potential(screened) =   -1.350160
       potential(ionic) =   -1.868508

   izeta = 2
                 rmatch =    4.103729
              splitnorm =    0.150000
                 energy =   -0.388153
                kinetic =    1.411813
    potential(screened) =   -1.799966
       potential(ionic) =   -2.346436

POLgen: Perturbative polarization orbital with L=  1

POLgen: Polarization orbital for state 1s

   izeta = 1
                     rc =    7.026209
                 energy =    0.513491
                kinetic =    1.100165
    potential(screened) =   -0.586674
       potential(ionic) =   -1.048593
atom: Total number of Sankey-type orbitals:  5

atm_pop: Valence configuration (for local Pseudopot. screening):
 1s( 1.00)
Vna: chval, zval:    1.00000   1.00000

Vna:  Cut-off radius for the neutral-atom potential:   7.026209

atom: _________________________________________________________________________

<basis_specs>
C                    Z=   6    Mass=  12.010        Charge= 0.17977+309
Lmxo=1 Lmxkb= 3    BasisType=split      Semic=F
L=0  Nsemic=0  Cnfigmx=2
          n=1  nzeta=2  polorb=0
            splnorm:   0.15000
               vcte:    0.0000
               rinn:    0.0000
                rcs:    0.0000      0.0000
            lambdas:   1.00000     1.00000
L=1  Nsemic=0  Cnfigmx=2
          n=1  nzeta=2  polorb=1
            splnorm:   0.15000
               vcte:    0.0000
               rinn:    0.0000
                rcs:    0.0000      0.0000
            lambdas:   1.00000     1.00000
L=0  Nkbl=1  erefs: 0.17977+309
L=1  Nkbl=1  erefs: 0.17977+309
L=2  Nkbl=1  erefs: 0.17977+309
L=3  Nkbl=1  erefs: 0.17977+309
</basis_specs>

[...]

SPLIT: Basis orbitals for state 2p

[...]

POLgen: Polarization orbital for state 2p

[...]

atm_pop: Valence configuration (for local Pseudopot. screening):
 2s( 2.00)
 2p( 2.00)
Vna: chval, zval:    4.00000   4.00000

[...]

SPLIT: Basis orbitals for state 2p

[...]

POLgen: Polarization orbital for state 2p

[...]

atm_pop: Valence configuration (for local Pseudopot. screening):
 2s( 2.00)
 2p( 5.00)
Vna: chval, zval:    7.00000   7.00000

[...]

<basis_specs>
Ag                   Z=  47    Mass=  107.87        Charge= 0.17977+309
Lmxo=2 Lmxkb= 3    BasisType=split      Semic=F
L=0  Nsemic=0  Cnfigmx=5
          n=1  nzeta=2  polorb=1
            splnorm:   0.15000
               vcte:    0.0000
               rinn:    0.0000
                rcs:    0.0000      0.0000
            lambdas:   1.00000     1.00000
L=1  Nsemic=0  Cnfigmx=5
L=2  Nsemic=0  Cnfigmx=4
          n=1  nzeta=2  polorb=0
            splnorm:   0.15000
               vcte:    0.0000
               rinn:    0.0000
                rcs:    0.0000      0.0000
            lambdas:   1.00000     1.00000
L=0  Nkbl=1  erefs: 0.17977+309
L=1  Nkbl=1  erefs: 0.17977+309
L=2  Nkbl=1  erefs: 0.17977+309
L=3  Nkbl=1  erefs: 0.17977+309
</basis_specs>

atom: Called for Ag                    (Z =  47)

read_vps: Pseudopotential generation method:
read_vps: ATM 3.2.2 Troullier-Martins
Total valence charge:   11.00000

xc_check: Exchange-correlation functional:
xc_check: GGA Perdew, Burke & Ernzerhof 1996
V l=0 = -2*Zval/r beyond r=  2.4592
V l=1 = -2*Zval/r beyond r=  2.6507
V l=2 = -2*Zval/r beyond r=  2.4592
V l=3 = -2*Zval/r beyond r=  2.4592
All V_l potentials equal beyond r=  2.6507
This should be close to max(r_c) in ps generation
All pots = -2*Zval/r beyond r=  2.6507

VLOCAL1: 99.0% of the norm of Vloc inside      6.178 Ry
VLOCAL1: 99.9% of the norm of Vloc inside     14.079 Ry
atom: Maximum radius for 4*pi*r*r*local-pseudopot. charge    3.19739
atom: Maximum radius for r*vlocal+2*Zval:    2.82168
GHOST: No ghost state for L =  0
GHOST: No ghost state for L =  1
GHOST: No ghost state for L =  2
GHOST: No ghost state for L =  3

KBgen: Kleinman-Bylander projectors:
   l= 0   rc=  2.966357   el= -0.323666   Ekb=  3.565490   kbcos=  0.247453
   l= 1   rc=  3.003670   el= -0.054265   Ekb=  1.619308   kbcos=  0.223076
   l= 2   rc=  2.786631   el= -0.547066   Ekb= -7.840816   kbcos= -0.714112
   l= 3   rc=  3.079709   el=  0.002953   Ekb= -2.732950   kbcos= -0.012571

KBgen: Total number of  Kleinman-Bylander projectors:   16
atom: -------------------------------------------------------------------------

atom: SANKEY-TYPE ORBITALS:
atom: Selected multiple-zeta basis: split

[...]

SPLIT: Basis orbitals for state 5s

[...]

SPLIT: Orbitals with angular momentum L= 2

SPLIT: Basis orbitals for state 4d

SPLIT: PAO cut-off radius determined from an
SPLIT: energy shift=  0.001000 Ry

   izeta = 1
                 lambda =    1.000000
                     rc =    5.899358
                 energy =   -0.546288
                kinetic =    5.940648
    potential(screened) =   -6.486936
       potential(ionic) =  -18.280755

   izeta = 2
                 rmatch =    2.650723
              splitnorm =    0.150000
                 energy =   -0.238526
                kinetic =    8.222011
    potential(screened) =   -8.460537
       potential(ionic) =  -21.296963

POLgen: Perturbative polarization orbital with L=  1

POLgen: Polarization orbital for state 5s

   izeta = 1
                     rc =    9.486283
                 energy =   -0.053026
                kinetic =    0.478302
    potential(screened) =   -0.531328
       potential(ionic) =   -7.012902
atom: Total number of Sankey-type orbitals: 15

atm_pop: Valence configuration (for local Pseudopot. screening):
 5s( 1.00)
 5p( 0.00)
 4d(10.00)
Vna: chval, zval:   11.00000  11.00000

Vna:  Cut-off radius for the neutral-atom potential:   9.486283

atom: _________________________________________________________________________

[...]
              0.008   0.010   0.008   0.010   0.219   0.157   0.218
1252 10.985   0.050   0.693   1.962   1.957   1.955   1.967   1.950   0.011
              0.013   0.013   0.012   0.010   0.181   0.108   0.103
1253 11.065   0.203   0.670   1.963   1.964   1.959   1.973   1.953   0.007
              0.008   0.008   0.006   0.005   0.165   0.083   0.097
1254 10.986   0.128   0.657   1.952   1.973   1.954   1.962   1.963   0.011
              0.008   0.011   0.010   0.007   0.105   0.092   0.154
1255 10.964  -0.088   0.844   1.957   1.965   1.952   1.968   1.960   0.006
              0.008   0.011   0.009   0.006   0.116   0.102   0.148
1256 10.914  -0.132   0.815   1.957   1.973   1.956   1.962   1.965   0.007
              0.010   0.008   0.007   0.006   0.101   0.104   0.175
1257 10.948  -0.026   0.721   1.958   1.961   1.961   1.971   1.960   0.007
              0.013   0.008   0.009   0.008   0.140   0.105   0.151
1258 10.962  -0.191   0.815   1.951   1.956   1.958   1.957   1.947   0.008
              0.012   0.012   0.013   0.009   0.146   0.141   0.225
1259 10.977   0.121   0.715   1.964   1.976   1.961   1.965   1.973   0.002
              0.005   0.002   0.007   0.005   0.091   0.082   0.107
1260 10.960  -0.230   0.823   1.948   1.959   1.960   1.958   1.949   0.012
              0.008   0.011   0.011   0.012   0.211   0.141   0.187
1261 10.824  -0.436   0.930   1.948   1.955   1.961   1.960   1.947   0.009
              0.010   0.013   0.011   0.013   0.209   0.144   0.148
1262 10.877  -0.069   0.778   1.972   1.965   1.956   1.978   1.963   0.006
              0.009   0.007   0.005   0.008   0.104   0.091   0.105
1263 11.003   0.210   0.619   1.969   1.970   1.964   1.975   1.966   0.007
              0.005   0.005   0.004   0.005   0.101   0.095   0.108
1264 11.066  -0.067   0.825   1.942   1.956   1.953   1.952   1.946   0.012
              0.009   0.009   0.012   0.011   0.191   0.142   0.172
1265 10.987  -0.143   0.833   1.950   1.960   1.956   1.958   1.952   0.009
              0.008   0.009   0.010   0.008   0.184   0.133   0.158
1266 10.975  -0.218   0.894   1.950   1.956   1.953   1.959   1.940   0.012
              0.014   0.011   0.008   0.011   0.168   0.127   0.191
1267 11.025   0.218   0.609   1.960   1.976   1.967   1.959   1.977   0.006
              0.006   0.007   0.012   0.005   0.098   0.103   0.123
1268 10.895  -0.090   0.779   1.967   1.961   1.960   1.972   1.964   0.009
              0.015   0.010   0.007   0.006   0.114   0.107   0.113
1269 10.855  -0.105   0.721   1.969   1.966   1.966   1.975   1.963   0.011
              0.008   0.007   0.005   0.010   0.126   0.121   0.113
1270 11.005  -0.129   0.826   1.961   1.943   1.943   1.966   1.952   0.012
              0.011   0.009   0.005   0.006   0.198   0.193   0.106
1271 11.018  -0.131   0.835   1.962   1.946   1.945   1.963   1.953   0.010
              0.011   0.009   0.008   0.011   0.183   0.195   0.118
1272 10.944  -0.320   0.958   1.957   1.961   1.947   1.951   1.961   0.008
              0.006   0.007   0.010   0.006   0.128   0.188   0.176
1273 11.112   0.096   0.709   1.950   1.956   1.938   1.945   1.957   0.013
              0.010   0.012   0.013   0.011   0.139   0.191   0.173
1274 10.842  -0.472   1.013   1.958   1.963   1.946   1.956   1.961   0.008
              0.004   0.009   0.007   0.010   0.135   0.196   0.149
1275 11.109   0.139   0.666   1.950   1.956   1.943   1.947   1.957   0.012
              0.009   0.011   0.011   0.012   0.138   0.185   0.172
1276 10.782  -0.680   1.066   1.969   1.973   1.966   1.973   1.969  -0.007
             -0.007  -0.007  -0.007  -0.006   0.192   0.193   0.194
1277 10.968  -0.322   0.975   1.946   1.955   1.951   1.953   1.939   0.011
              0.012   0.013   0.012   0.012   0.159   0.153   0.200
1278 10.973   0.120   0.629   1.958   1.974   1.962   1.962   1.974   0.008
              0.010   0.012   0.010   0.007   0.114   0.116   0.119
1279 11.032  -0.094   0.814   1.940   1.955   1.952   1.954   1.944   0.013
              0.010   0.011   0.014   0.013   0.180   0.149   0.177
1280 10.949  -0.191   0.831   1.943   1.958   1.950   1.954   1.951   0.013
              0.009   0.012   0.014   0.009   0.184   0.142   0.171
1281 10.934   0.046   0.674   1.967   1.964   1.963   1.972   1.962   0.008
              0.013   0.009   0.009   0.012   0.112   0.116   0.105
1282 11.001   0.234   0.591   1.969   1.966   1.966   1.974   1.964   0.007
              0.010   0.007   0.009   0.007   0.100   0.094   0.101

mulliken: Qtot =     5346.000

outcoor: Final (unrelaxed) atomic coordinates (Ang):
   15.21925016   16.45651179   20.86833550   2       1  C
   15.42009262   16.83642945   19.83537884   1       2  H
   16.16171492   16.02508160   21.26705011   1       3  H
   14.91719628   17.30914300   21.49728686   1       4  H
   14.13537058   15.41984108   20.83104027   2       5  C
   13.61156554   15.40005005   19.51953279   3       6  F
   14.75613126   14.13751590   20.94702404   3       7  F
   12.95106254   15.42940384   21.83030490   2       8  C
   12.80772621   14.39309084   22.17209486   1       9  H
   13.25697409   16.03458012   22.70199023   1      10  H
   11.58710227   15.92586716   21.37170665   2      11  C
   11.76201021   17.19366638   20.76527464   3      12  F
   11.12097603   15.11613793   20.32799002   3      13  F
   10.41754000   16.10535674   22.37027798   2      14  C
   10.73621214   16.87841877   23.10854043   1      15  H
    9.57891745   16.55961082   21.80268027   1      16  H
    9.83835083   14.93217323   23.16902527   2      17  C
   10.86399168   14.00814579   23.41555294   3      18  F
    9.57791206   15.46973076    0.81000452   3      19  F
    8.57755504   14.15051210   22.77638523   2      20  C
    8.28648594   13.49427837   23.64223610   1      21  H
    7.74849056   14.89233113   22.67754007   1      22  H
    8.52810101   13.28006591   21.53070016   2      23  C
    7.22021390   12.74612010   21.45228502   3      24  F
    8.54228569   14.16002078   20.42231746   3      25  F
    9.54852334   12.17050695   21.23872846   2      26  C
    9.32711856   11.78126235   20.20322522   1      27  H
   10.54682343   12.63814936   21.15878518   1      28  H
    9.68265047   10.97745199   22.18071264   2      29  C
    8.54640629   10.95657054   23.01721595   3      30  F
    9.53394840    9.79297931   21.41216464   3      31  F
   10.90100630   10.77563862   23.07648734   2      32  C
   10.80193465   11.52317837    0.27520583   1      33  H
   10.80719819    9.77975094   23.58473834   1      34  H
   12.34202995   10.85309074   22.54106525   2      35  C
   12.84752454   12.12534067   22.89762081   3      36  F
   13.14211580    9.97129290   23.30393754   3      37  F
   12.66873813   10.60749466   21.08057573   2      38  C
   11.91432081    9.92999084   20.65661771   1      39  H
   12.59976654   11.59189082   20.53344595   1      40  H
   14.04482944   10.03358591   20.69048553   2      41  C
   14.23064479   10.38842792   19.33654674   3      42  F
   15.06127546   10.73935310   21.35054793   3      43  F
   14.34146576    8.53774751   20.84678474   2      44  C
   15.27673468    8.44002226   21.41586663   1      45  H
   13.53768461    8.09075317   21.47099591   1      46  H
   14.45509806    7.65950921   19.60375468   2      47  C
   14.40803457    6.30951631   20.03002640   3      48  F
   13.23925486    7.81602882   18.89944697   3      49  F
   15.57882443    7.75105422   18.56766064   2      50  C
   15.58068472    6.77646638   18.02211077   1      51  H
   15.28288975    8.52788681   17.82963301   1      52  H
   17.01912430    8.00170899   18.97987078   2      53  C
   17.68456143    8.47656155   17.80771881   3      54  F
   17.06571597    9.12239660   19.82491094   3      55  F
   17.92582789    6.90977274   19.54429309   2      56  C
   17.68144322    5.98215096   18.96967562   1      57  H
   18.97650356    7.15729927   19.24906745   1      58  H
   17.93026228    6.58524030   21.03894161   2      59  C
   16.59967336    6.43467910   21.47659465   3      60  F
[...]
    7.15923036    9.79209783   12.90305328   4    1268  Ag
   12.90211979    9.79559932   12.89750140   4    1269  Ag
   12.92126402   11.46621726   15.24640897   4    1270  Ag
    7.14937829   11.45255171   15.24727519   4    1271  Ag
   11.48445162   13.94687578   15.23993660   4    1272  Ag
   11.48650158    8.95283807   15.24561876   4    1273  Ag
    8.60715484   13.95327884   15.24606371   4    1274  Ag
    8.59341837    8.95305132   15.24420569   4    1275  Ag
   10.04007909   11.46203222   15.24577248   4    1276  Ag
   10.04049959   13.12788269   17.61024938   4    1277  Ag
   10.04365092    8.14187936   17.59579420   4    1278  Ag
   11.48818676   10.62493906   17.61041015   4    1279  Ag
    8.60185828   10.63158403   17.60643906   4    1280  Ag
   12.91555425   13.11804202   17.60664367   4    1281  Ag
    7.16094587   13.11823535   17.60832604   4    1282  Ag

siesta: Program's energy decomposition (eV):
siesta: Ebs     =    -84716.833374
siesta: Eions   =    528240.073050
siesta: Ena     =     62985.580149
siesta: Ekin    =    266648.800050
siesta: Enl     =    -92338.566220
siesta: DEna    =     -3563.301607
siesta: DUscf   =       451.045903
siesta: DUext   =         0.000000
siesta: Exc     =    -81244.400203
siesta: eta*DQ  =         0.000000
siesta: Emadel  =         0.000000
siesta: Emeta   =         0.000000
siesta: Emolmec =         0.000000
siesta: Ekinion =         0.000000
siesta: Eharris =   -375300.909650
siesta: Etot    =   -375300.914979
siesta: FreeEng =   -375300.991544

siesta: Final energy (eV):
siesta:  Band Struct. =  -84716.833374
siesta:       Kinetic =  266648.800050
siesta:       Hartree =  173368.822628
siesta:    Ext. field =       0.000000
siesta:   Exch.-corr. =  -81244.400203
siesta:  Ion-electron = -592582.158342
siesta:       Ion-ion = -141491.979111
siesta:       Ekinion =       0.000000
siesta:         Total = -375300.914979

siesta: Atomic forces (eV/Ang):
siesta:      1   -0.001826    0.233903    0.128755
siesta:      2   -0.035068    0.012410   -0.162501
siesta:      3    0.174052   -0.069768    0.243062
siesta:      4   -0.031540    0.437715    0.310500
siesta:      5   -0.376099   -0.005467   -0.408322
siesta:      6   -0.347733   -0.053320   -0.928604
siesta:      7    0.033547   -0.527835    0.235690
siesta:      8   -0.112002   -0.028511    0.438374
siesta:      9    0.026984   -0.379428    0.236753
siesta:     10    0.099250    0.191200    0.484596
siesta:     11    0.014959   -0.151713   -0.368607
siesta:     12    0.063421    0.664341    0.047577
siesta:     13   -0.222734   -0.604065   -0.331348
siesta:     14    0.123303    0.165767   -0.200720
siesta:     15    0.088232    0.094233    0.249927
siesta:     16   -0.123119    0.272921   -0.346161
siesta:     17    0.534469   -0.250102   -0.098287
siesta:     18    0.645756   -0.729142   -0.154566
siesta:     19   -0.409752    0.574544    0.053747
siesta:     20   -0.062963   -0.049208   -0.124045
siesta:     21    0.159136   -0.120276    0.370263
siesta:     22   -0.297167    0.217314   -0.081342
siesta:     23    0.021590   -0.025411   -0.175874
siesta:     24   -0.272354   -0.324251    0.391286
siesta:     25    0.431092    0.409321   -0.482943
siesta:     26    0.335355    0.128664    0.050798
siesta:     27   -0.131017    0.017362   -0.035721
siesta:     28    0.406199    0.481238   -0.155884
siesta:     29   -0.278630   -0.034847   -0.005997
siesta:     30   -0.250295   -0.111287    0.643646
siesta:     31    0.160921   -0.430837   -0.447442
siesta:     32   -0.082010    0.035652   -0.332452
siesta:     33    0.202369    0.100197    0.040232
siesta:     34   -0.220863   -0.202448   -0.058936
siesta:     35    0.271012    0.093118    0.048284
siesta:     36    0.271503    0.761995    0.010223
siesta:     37    0.040505   -0.456871    0.402990
siesta:     38   -0.151892   -0.140359   -0.179050
siesta:     39   -0.448133   -0.267133   -0.417301
siesta:     40   -0.176978    0.091208   -0.119111
siesta:     41    0.364148    0.077716   -0.083359
siesta:     42   -0.029032    0.176147   -0.674575
siesta:     43    0.205485    0.325625    0.428836
siesta:     44    0.053494   -0.164447    0.330615
siesta:     45    0.315419    0.003127    0.293986
siesta:     46   -0.230857   -0.257675    0.167888
siesta:     47   -0.155831    0.021289    0.009034
siesta:     48    0.016471   -0.296843    0.373931
siesta:     49   -0.492796    0.075286   -0.473735
siesta:     50    0.124638   -0.084043   -0.018780
siesta:     51   -0.228091   -0.218168   -0.266881
siesta:     52    0.046858    0.186992   -0.079193
siesta:     53    0.098834    0.471404    0.546846
siesta:     54    0.122544   -0.285896   -0.552771
siesta:     55    0.011394    0.688436    0.804756
siesta:     56    0.070201   -0.153231    0.066270
siesta:     57   -0.043453   -0.422293    0.097283
siesta:     58    0.189567    0.143635   -0.042974
siesta:     59   -0.084103   -0.101823    0.013190
siesta:     60   -0.386460    0.399654    0.197589
[...]
siesta:   1268    0.357051   -0.011243    0.651333
siesta:   1269   -1.116323    0.153307    0.408882
siesta:   1270   -0.324932    0.256000   -0.023108
siesta:   1271   -0.071533   -0.319142    0.020729
siesta:   1272   -0.005072   -0.632388   -0.298644
siesta:   1273    0.057882   -0.227270   -0.054465
siesta:   1274    0.486580   -0.379126   -0.029720
siesta:   1275   -0.061614   -0.222163   -0.113101
siesta:   1276    0.001532    0.051336   -0.049114
siesta:   1277    0.030461    0.004752    0.200930
siesta:   1278    0.164380    0.761561   -0.423999
siesta:   1279    0.146785   -0.043734    0.192291
siesta:   1280    0.278150    0.221993    0.039117
siesta:   1281   -0.591774   -0.421085    0.042020
siesta:   1282    0.439705   -0.430401    0.103920
siesta: ----------------------------------------
siesta:    Tot    0.070553    0.035691   -0.083333

siesta: Stress tensor (static) (eV/Ang**3):
siesta:    -0.018346    0.000740    0.000777
siesta:     0.000740   -0.018080    0.001285
siesta:     0.000777    0.001285   -0.021382

siesta: Cell volume =      13041.289483 Ang**3

siesta: Pressure (static):
siesta:                Solid            Molecule  Units
siesta:           0.00020987          0.00024224  Ry/Bohr**3
siesta:           0.01926911          0.02224130  eV/Ang**3
siesta:          30.87285364         35.63486859  kBar
(Free)E+ p_basis*V_orbitals  =     -374516.279925
(Free)Eharris+ p_basis*V_orbitals  =     -374516.271593

elaps:  Routine       Calls   Time/call    Tot.time        %
elaps:  siesta            1    7254.395    7254.395   100.00
elaps:  Setup             1       5.343       5.343     0.07
elaps:  bands             1       0.000       0.000     0.00
elaps:  writewave         1       0.001       0.001     0.00
elaps:  KSV_init          1       0.000       0.000     0.00
elaps:  IterMD            2    3624.219    7248.438    99.92
elaps:  hsparse           2       1.712       3.425     0.05
elaps:  overlap           2       0.918       1.835     0.03
elaps:  IterSCF          33     210.729    6954.045    95.86
elaps:  kinefsm           4       0.582       2.328     0.03
elaps:  nlefsm            4       7.223      28.891     0.40
elaps:  DHSCF            35      94.133    3294.672    45.42
elaps:  DHSCF1            1       1.014       1.014     0.01
elaps:  DHSCF2            2      54.457     108.915     1.50
elaps:  REORD           214       0.001       0.285     0.00
elaps:  POISON           37       3.983     147.368     2.03
elaps:  DHSCF3           35      88.852    3109.815    42.87
elaps:  rhoofd           35      37.761    1321.650    18.22
elaps:  cellXC           35       1.126      39.404     0.54
elaps:  vmat             35      41.630    1457.034    20.08
elaps:  MolMec            4       0.002       0.007     0.00
elaps:  diagon           33     115.726    3818.944    52.64
elaps:  r-eigvec         33     105.397    3478.099    47.94
elaps:  r-buildHS        33       0.012       0.384     0.01
elaps:  rdiag            33     105.385    3477.715    47.94
elaps:  rdiag1           33       6.259     206.561     2.85
elaps:  rdiag2           33      22.188     732.214    10.09
elaps:  rdiag3           33      65.734    2169.233    29.90
elaps:  rdiag4           33       5.891     194.392     2.68
elaps:  r-buildD         33      10.313     340.323     4.69
elaps:  DHSCF4            2      37.405      74.811     1.03
elaps:  dfscf             2      34.626      69.252     0.95
elaps:  overfsm           2       0.243       0.487     0.01
elaps:  optical           1       0.000       0.000     0.00

>> End of run:  11-SEP-2014   3:36:55