>> Start of run:  30-OCT-2014   1:23:45

reinit: Reading from standard input
************************** Dump of input data file ****************************
SystemName      optical
SystemLabel     optical
NumberOfAtoms   1282
NumberOfSpecies 4
MD.TypeOfRun    CG
MD.NumCGsteps   0
MD.ConstantVolume  .true.
SolutionMethod  diagon
XC.functional   GGA
XC.authors      PBE
PAO.BasisSize   DZP
DM.NumberPulay  7
DM.MixingWeight 0.1
DirectPhi       .true.
MeshCutoff      500 Ry
MaxSCFiterations 200
UseSaveData     .true.
WriteMullikenPop 1
OpticalCalculation      .true.
%block Optical.Mesh
 1 1 1
%endblock Optical.Mesh
Optical.PolarizationType  polarized
%block Optical.Vector
 0.0 1.0 0.0
%endblock Optical.Vector
Optical.Broaden         0.05 eV
Optical.EnergyMinimum   0.001 eV
Optical.EnergyMaximum   100.0 eV
%block ChemicalSpeciesLabel
 1   1   H
 2   6   C
 3   9   F
 4  47   Ag
%endblock ChemicalSpeciesLabel
LatticeConstant 1.0 Ang
%block LatticeParameters
  22.534   24.472   23.649   90.0 90.0 90.0
%endblock LatticeParameters
AtomicCoordinatesFormat Ang
%block AtomicCoordinatesAndAtomicSpecies < struct.coor
%endblock AtomicCoordinatesAndAtomicSpecies
************************** End of input data file *****************************

reinit: -----------------------------------------------------------------------
reinit: System Name: optical
reinit: -----------------------------------------------------------------------
reinit: System Label: optical
reinit: -----------------------------------------------------------------------

initatom: Reading input for the pseudopotentials and atomic orbitals ----------
 Species number:            1  Label: H Atomic number:           1
 Species number:            2  Label: C Atomic number:           6
 Species number:            3  Label: F Atomic number:           9
 Species number:            4  Label: Ag Atomic number:          47
Ground state valence configuration:   1s01
Reading pseudopotential information in formatted form from H.psf

Valence configuration for pseudopotential generation:
1s( 1.00) rc: 1.33
2p( 0.00) rc: 1.33
3d( 0.00) rc: 0.37
4f( 0.00) rc: 1.33
Ground state valence configuration:   2s02  2p02
Reading pseudopotential information in formatted form from C.psf

Valence configuration for pseudopotential generation:
2s( 2.00) rc: 1.56
2p( 2.00) rc: 1.56
3d( 0.00) rc: 1.56
4f( 0.00) rc: 1.56
Ground state valence configuration:   2s02  2p05
Reading pseudopotential information in formatted form from F.psf

Valence configuration for pseudopotential generation:
2s( 2.00) rc: 1.41
2p( 5.00) rc: 1.41
3d( 0.00) rc: 1.41
4f( 0.00) rc: 1.41
Ground state valence configuration:   5s01  4d10
Reading pseudopotential information in formatted form from Ag.psf

Valence configuration for pseudopotential generation:
5s( 1.00) rc: 2.52
5p( 0.00) rc: 2.72
4d(10.00) rc: 2.52
4f( 0.00) rc: 2.52
For H, standard SIESTA heuristics set lmxkb to 2
 (one more than the basis l, including polarization orbitals).
Use PS.lmax or PS.KBprojectors blocks to override.
For C, standard SIESTA heuristics set lmxkb to 3
 (one more than the basis l, including polarization orbitals).
Use PS.lmax or PS.KBprojectors blocks to override.
For F, standard SIESTA heuristics set lmxkb to 3
 (one more than the basis l, including polarization orbitals).
Use PS.lmax or PS.KBprojectors blocks to override.
For Ag, standard SIESTA heuristics set lmxkb to 3
 (one more than the basis l, including polarization orbitals).
Use PS.lmax or PS.KBprojectors blocks to override.

<basis_specs>
H                    Z=   1    Mass=  1.0100        Charge= 0.17977+309
Lmxo=0 Lmxkb= 2    BasisType=split      Semic=F
L=0  Nsemic=0  Cnfigmx=1
          n=1  nzeta=2  polorb=1
            splnorm:   0.15000
               vcte:    0.0000
               rinn:    0.0000
                rcs:    0.0000      0.0000
            lambdas:   1.00000     1.00000
L=0  Nkbl=1  erefs: 0.17977+309
L=1  Nkbl=1  erefs: 0.17977+309
L=2  Nkbl=1  erefs: 0.17977+309
</basis_specs>

atom: Called for H                     (Z =   1)

read_vps: Pseudopotential generation method:
read_vps: ATM 3.2.2 Troullier-Martins
Total valence charge:    1.00000

xc_check: Exchange-correlation functional:
xc_check: GGA Perdew, Burke & Ernzerhof 1996
V l=0 = -2*Zval/r beyond r=  1.2656
V l=1 = -2*Zval/r beyond r=  1.2498
V l=2 = -2*Zval/r beyond r=  0.3563
All V_l potentials equal beyond r=  1.2656
This should be close to max(r_c) in ps generation
All pots = -2*Zval/r beyond r=  1.2656

VLOCAL1: 99.0% of the norm of Vloc inside     27.100 Ry
VLOCAL1: 99.9% of the norm of Vloc inside     61.762 Ry
atom: Maximum radius for 4*pi*r*r*local-pseudopot. charge    1.48935
atom: Maximum radius for r*vlocal+2*Zval:    1.24984
GHOST: No ghost state for L =  0
GHOST: No ghost state for L =  1
GHOST: No ghost state for L =  2

KBgen: Kleinman-Bylander projectors:
   l= 0   rc=  1.398961   el= -0.477209   Ekb= -2.001853   kbcos= -0.352188
   l= 1   rc=  1.470814   el=  0.001006   Ekb= -0.423408   kbcos= -0.024395
   l= 2   rc=  1.489346   el=  0.001895   Ekb= -0.481957   kbcos= -0.001574

KBgen: Total number of  Kleinman-Bylander projectors:    9
atom: -------------------------------------------------------------------------

atom: SANKEY-TYPE ORBITALS:
atom: Selected multiple-zeta basis: split

SPLIT: Orbitals with angular momentum L= 0

SPLIT: Basis orbitals for state 1s

SPLIT: PAO cut-off radius determined from an
SPLIT: energy shift=  0.020000 Ry

   izeta = 1
                 lambda =    1.000000
                     rc =    4.708991
                 energy =   -0.457764
                kinetic =    0.979534
    potential(screened) =   -1.437298
       potential(ionic) =   -1.965615

   izeta = 2
                 rmatch =    3.759707
              splitnorm =    0.150000
                 energy =   -0.339003
                kinetic =    1.582546
    potential(screened) =   -1.921548
       potential(ionic) =   -2.471878

POLgen: Perturbative polarization orbital with L=  1

POLgen: Polarization orbital for state 1s

   izeta = 1
                     rc =    4.708991
                 energy =    0.764951
                kinetic =    1.476882
    potential(screened) =   -0.711931
       potential(ionic) =   -1.204335
atom: Total number of Sankey-type orbitals:  5

atm_pop: Valence configuration (for local Pseudopot. screening):
 1s( 1.00)
Vna: chval, zval:    1.00000   1.00000

Vna:  Cut-off radius for the neutral-atom potential:   4.708991

atom: _________________________________________________________________________

<basis_specs>
C                    Z=   6    Mass=  12.010        Charge= 0.17977+309
Lmxo=1 Lmxkb= 3    BasisType=split      Semic=F
L=0  Nsemic=0  Cnfigmx=2
          n=1  nzeta=2  polorb=0
            splnorm:   0.15000
               vcte:    0.0000
               rinn:    0.0000
                rcs:    0.0000      0.0000
            lambdas:   1.00000     1.00000
L=1  Nsemic=0  Cnfigmx=2
          n=1  nzeta=2  polorb=1
            splnorm:   0.15000
               vcte:    0.0000
               rinn:    0.0000
                rcs:    0.0000      0.0000
            lambdas:   1.00000     1.00000
L=0  Nkbl=1  erefs: 0.17977+309
L=1  Nkbl=1  erefs: 0.17977+309
L=2  Nkbl=1  erefs: 0.17977+309
L=3  Nkbl=1  erefs: 0.17977+309
</basis_specs>

[...]

SPLIT: Basis orbitals for state 2p

[...]

POLgen: Polarization orbital for state 2p

[...]

atm_pop: Valence configuration (for local Pseudopot. screening):
 2s( 2.00)
 2p( 2.00)
Vna: chval, zval:    4.00000   4.00000

[...]

SPLIT: Basis orbitals for state 2p

[...]

POLgen: Polarization orbital for state 2p

[...]

atm_pop: Valence configuration (for local Pseudopot. screening):
 2s( 2.00)
 2p( 5.00)
Vna: chval, zval:    7.00000   7.00000

[...]

<basis_specs>
Ag                   Z=  47    Mass=  107.87        Charge= 0.17977+309
Lmxo=2 Lmxkb= 3    BasisType=split      Semic=F
L=0  Nsemic=0  Cnfigmx=5
          n=1  nzeta=2  polorb=1
            splnorm:   0.15000
               vcte:    0.0000
               rinn:    0.0000
                rcs:    0.0000      0.0000
            lambdas:   1.00000     1.00000
L=1  Nsemic=0  Cnfigmx=5
L=2  Nsemic=0  Cnfigmx=4
          n=1  nzeta=2  polorb=0
            splnorm:   0.15000
               vcte:    0.0000
               rinn:    0.0000
                rcs:    0.0000      0.0000
            lambdas:   1.00000     1.00000
L=0  Nkbl=1  erefs: 0.17977+309
L=1  Nkbl=1  erefs: 0.17977+309
L=2  Nkbl=1  erefs: 0.17977+309
L=3  Nkbl=1  erefs: 0.17977+309
</basis_specs>

atom: Called for Ag                    (Z =  47)

read_vps: Pseudopotential generation method:
read_vps: ATM 3.2.2 Troullier-Martins
Total valence charge:   11.00000

xc_check: Exchange-correlation functional:
xc_check: GGA Perdew, Burke & Ernzerhof 1996
V l=0 = -2*Zval/r beyond r=  2.4592
V l=1 = -2*Zval/r beyond r=  2.6507
V l=2 = -2*Zval/r beyond r=  2.4592
V l=3 = -2*Zval/r beyond r=  2.4592
All V_l potentials equal beyond r=  2.6507
This should be close to max(r_c) in ps generation
All pots = -2*Zval/r beyond r=  2.6507

VLOCAL1: 99.0% of the norm of Vloc inside      6.178 Ry
VLOCAL1: 99.9% of the norm of Vloc inside     14.079 Ry
atom: Maximum radius for 4*pi*r*r*local-pseudopot. charge    3.19739
atom: Maximum radius for r*vlocal+2*Zval:    2.82168
GHOST: No ghost state for L =  0
GHOST: No ghost state for L =  1
GHOST: No ghost state for L =  2
GHOST: No ghost state for L =  3

KBgen: Kleinman-Bylander projectors:
   l= 0   rc=  2.966357   el= -0.323666   Ekb=  3.565490   kbcos=  0.247453
   l= 1   rc=  3.003670   el= -0.054265   Ekb=  1.619308   kbcos=  0.223076
   l= 2   rc=  2.786631   el= -0.547066   Ekb= -7.840816   kbcos= -0.714112
   l= 3   rc=  3.079709   el=  0.002953   Ekb= -2.732950   kbcos= -0.012571

KBgen: Total number of  Kleinman-Bylander projectors:   16
atom: -------------------------------------------------------------------------

atom: SANKEY-TYPE ORBITALS:
atom: Selected multiple-zeta basis: split

[...]

SPLIT: Basis orbitals for state 5s

[...]

SPLIT: Orbitals with angular momentum L= 2

SPLIT: Basis orbitals for state 4d

SPLIT: PAO cut-off radius determined from an
SPLIT: energy shift=  0.020000 Ry

   izeta = 1
                 lambda =    1.000000
                     rc =    3.954440
                 energy =   -0.527442
                kinetic =    6.210364
    potential(screened) =   -6.737807
       potential(ionic) =  -18.733043

   izeta = 2
                 rmatch =    2.490121
              splitnorm =    0.150000
                 energy =   -0.148928
                kinetic =    8.576261
    potential(screened) =   -8.725189
       potential(ionic) =  -21.658221

POLgen: Perturbative polarization orbital with L=  1

POLgen: Polarization orbital for state 5s

   izeta = 1
                     rc =    6.684855
                 energy =   -0.001728
                kinetic =    0.597115
    potential(screened) =   -0.598843
       potential(ionic) =   -7.554613
atom: Total number of Sankey-type orbitals: 15

atm_pop: Valence configuration (for local Pseudopot. screening):
 5s( 1.00)
 5p( 0.00)
 4d(10.00)
Vna: chval, zval:   11.00000  11.00000

[...]
  36  6.938   1.463   0.280   1.841   1.770   1.450  -0.005   0.022   0.097
              0.005   0.002   0.002   0.005   0.005
  37  6.943   1.464   0.279   1.891   1.452   1.733  -0.021   0.096   0.028
              0.002   0.005   0.006   0.006   0.002
  42  6.938   1.455   0.286   1.641   1.639   1.797   0.046   0.047   0.008
              0.003   0.005   0.004   0.004   0.003
  43  6.941   1.450   0.286   1.433   1.742   1.910   0.108   0.018  -0.026
              0.004   0.006   0.003   0.002   0.004
  48  6.951   1.458   0.282   1.367   1.896   1.854   0.117  -0.027  -0.016
              0.005   0.005   0.003   0.001   0.005
  49  6.934   1.472   0.276   1.697   1.869   1.471   0.054  -0.008   0.084
              0.005   0.002   0.003   0.005   0.005
  54  6.919   1.462   0.283   1.344   1.844   1.798   0.143   0.003   0.022
              0.006   0.005   0.003   0.001   0.006
  55  6.911   1.447   0.292   1.863   1.325   1.784  -0.005   0.169   0.013
              0.002   0.004   0.008   0.007   0.002
  60  6.915   1.455   0.285   1.641   1.503   1.842   0.061   0.100   0.006
              0.002   0.006   0.005   0.005   0.003
  61  6.915   1.459   0.284   1.519   1.725   1.752   0.100   0.036   0.022
              0.005   0.005   0.003   0.003   0.004
  66  6.931   1.459   0.282   1.867   1.274   1.901  -0.001   0.154  -0.024
              0.001   0.005   0.008   0.005   0.001
  67  6.949   1.455   0.284   1.600   1.839   1.682   0.049  -0.004   0.025
              0.006   0.003   0.003   0.002   0.006
  72  6.932   1.475   0.274   1.522   1.788   1.708   0.087   0.011   0.048
              0.004   0.005   0.003   0.003   0.005
  73  6.921   1.453   0.287   1.868   1.778   1.367  -0.005   0.015   0.139
              0.004   0.001   0.003   0.006   0.005
  78  6.942   1.451   0.288   1.409   1.788   1.892   0.112   0.008  -0.025
              0.005   0.005   0.002   0.001   0.006
  79  6.955   1.466   0.279   1.869   1.366   1.881  -0.015   0.111  -0.021
              0.001   0.005   0.007   0.006   0.001
  84  6.912   1.446   0.290   1.247   1.880   1.857   0.176  -0.006   0.002
              0.004   0.006   0.003   0.001   0.007
  85  6.906   1.445   0.292   1.807   1.806   1.363   0.023   0.015   0.136
              0.004   0.001   0.003   0.006   0.005
  90  6.952   1.465   0.278   1.872   1.452   1.782  -0.017   0.089   0.011
              0.002   0.004   0.006   0.006   0.002
  91  6.946   1.455   0.285   1.386   1.818   1.881   0.115   0.001  -0.015
              0.006   0.005   0.003   0.001   0.005
[...]
              0.001   0.004   0.008   0.006   0.001
1231  6.931   1.459   0.285   1.362   1.826   1.850   0.118   0.009   0.002
              0.006   0.004   0.003   0.001   0.006
1236  6.933   1.459   0.284   1.853   1.645   1.542   0.001   0.055   0.075
              0.003   0.002   0.005   0.006   0.004
1237  6.893   1.445   0.297   1.508   1.776   1.664   0.097   0.022   0.064
              0.005   0.004   0.003   0.003   0.005
1242  6.891   1.449   0.293   1.409   1.750   1.766   0.132   0.034   0.037
              0.005   0.005   0.003   0.003   0.006
1243  6.929   1.465   0.281   1.760   1.438   1.831   0.010   0.118   0.007
              0.002   0.005   0.005   0.005   0.002
1248  6.918   1.465   0.280   1.766   1.811   1.434   0.029   0.010   0.105
              0.005   0.002   0.003   0.005   0.005
1249  6.924   1.467   0.278   1.497   1.697   1.822   0.102   0.038   0.004
              0.004   0.006   0.004   0.002   0.004

Species: Ag
Atom  Qatom  Qorb
1251 11.017   0.232   0.509   1.868   1.874   1.881   1.904   1.870   0.036
              0.035   0.038   0.018   0.037   0.252   0.204   0.258
1252 11.040   0.507   0.368   1.922   1.916   1.923   1.942   1.897   0.011
              0.011   0.004   0.000   0.016   0.210   0.139   0.173
1253 11.085   0.646   0.361   1.938   1.936   1.893   1.965   1.905  -0.001
             -0.002   0.012  -0.013   0.004   0.205   0.117   0.119
1254 11.048   0.437   0.402   1.913   1.960   1.924   1.929   1.928   0.003
              0.001  -0.000  -0.000   0.005   0.174   0.144   0.229
1255 11.034   0.440   0.478   1.907   1.919   1.916   1.941   1.919   0.008
              0.007   0.005   0.001   0.010   0.177   0.125   0.182
1256 10.962   0.365   0.495   1.900   1.909   1.888   1.899   1.896   0.016
              0.024   0.022   0.019   0.022   0.157   0.122   0.228
1257 11.022   0.478   0.398   1.910   1.918   1.913   1.951   1.931   0.008
              0.009   0.008  -0.005   0.002   0.174   0.153   0.176
1258 11.067   0.432   0.364   1.901   1.921   1.913   1.914   1.881   0.014
              0.014   0.021   0.012   0.023   0.200   0.207   0.253
1259 11.038   0.532   0.371   1.929   1.985   1.923   1.936   1.982  -0.007
             -0.023  -0.002  -0.002  -0.025   0.120   0.160   0.160
1260 11.030   0.340   0.451   1.873   1.914   1.891   1.908   1.888   0.031
              0.014   0.030   0.017   0.022   0.235   0.194   0.223
1261 11.050   0.411   0.443   1.880   1.914   1.907   1.920   1.886   0.024
              0.012   0.018   0.010   0.020   0.235   0.179   0.189
1262 11.026   0.598   0.411   1.902   1.911   1.886   1.949   1.926   0.018
              0.011   0.018  -0.003   0.004   0.125   0.128   0.142
1263 11.007   0.512   0.397   1.959   1.920   1.904   1.959   1.938  -0.010
              0.006   0.010  -0.007  -0.006   0.151   0.131   0.144
1264 11.044   0.428   0.430   1.880   1.891   1.894   1.913   1.890   0.025
              0.025   0.023   0.016   0.021   0.220   0.172   0.217
1265 11.132   0.574   0.384   1.883   1.917   1.910   1.918   1.894   0.020
              0.009   0.013   0.011   0.015   0.212   0.172   0.200
1266 10.995   0.249   0.546   1.897   1.905   1.892   1.904   1.858   0.018
              0.025   0.027   0.018   0.035   0.206   0.191   0.225
1267 10.985   0.622   0.307   1.909   1.962   1.942   1.922   1.974   0.006
             -0.009  -0.008   0.001  -0.017   0.102   0.125   0.146
1268 10.950   0.397   0.412   1.948   1.907   1.916   1.935   1.933   0.002
              0.017   0.011   0.005  -0.001   0.167   0.141   0.162
1269 10.978   0.593   0.331   1.948   1.931   1.927   1.935   1.912  -0.002
              0.002   0.002   0.004   0.010   0.132   0.114   0.141
1270 11.068   0.409   0.439   1.922   1.879   1.881   1.922   1.901   0.012
              0.026   0.022   0.013   0.017   0.225   0.230   0.171
1271 11.078   0.394   0.511   1.926   1.873   1.877   1.918   1.890   0.008
              0.027   0.021   0.014   0.018   0.226   0.218   0.156
1272 11.068   0.427   0.455   1.904   1.909   1.883   1.884   1.913   0.017
              0.017   0.021   0.024   0.015   0.168   0.220   0.213
1273 11.083   0.377   0.495   1.904   1.908   1.874   1.883   1.922   0.016
              0.017   0.024   0.025   0.012   0.179   0.238   0.207
1274 11.052   0.327   0.547   1.908   1.911   1.877   1.892   1.896   0.011
              0.017   0.023   0.020   0.023   0.169   0.222   0.211
1275 11.075   0.406   0.497   1.894   1.898   1.861   1.881   1.875   0.023
              0.022   0.032   0.027   0.035   0.172   0.235   0.218
1276 11.072   0.164   0.557   1.883   1.891   1.877   1.889   1.883   0.031
              0.030   0.032   0.030   0.031   0.256   0.262   0.257
1277 11.093   0.431   0.462   1.898   1.911   1.908   1.907   1.878   0.017
              0.012   0.015   0.015   0.026   0.199   0.191   0.224
1278 10.948   0.403   0.378   1.902   1.976   1.930   1.924   1.933   0.019
             -0.015   0.005   0.001   0.008   0.162   0.156   0.166
1279 11.022   0.288   0.544   1.854   1.908   1.885   1.903   1.876   0.038
              0.018   0.032   0.020   0.029   0.227   0.189   0.211
1280 11.049   0.364   0.526   1.881   1.913   1.881   1.900   1.893   0.021
              0.014   0.025   0.020   0.020   0.213   0.177   0.202
1281 10.979   0.564   0.358   1.951   1.915   1.936   1.947   1.910  -0.006
              0.011  -0.002  -0.003   0.008   0.142   0.124   0.125
1282 11.017   0.597   0.303   1.968   1.928   1.952   1.969   1.938  -0.016
             -0.005  -0.013  -0.014  -0.006   0.132   0.148   0.135

mulliken: Qtot =     5346.000

siesta: Program's energy decomposition (eV):
siesta: Ebs     =    -75978.760258
siesta: Eions   =    528240.072706
siesta: Ena     =     58053.173840
siesta: Ekin    =    270085.591080
siesta: Enl     =    -93482.216662
siesta: DEna    =       230.790323
siesta: DUscf   =       347.527924
siesta: DUext   =         0.000000
siesta: Exc     =    -81900.123417
siesta: eta*DQ  =         0.000000
siesta: Emadel  =         0.000000
siesta: Emeta   =         0.000000
siesta: Emolmec =         0.000000
siesta: Ekinion =         0.000000
siesta: Eharris =   -374905.304586
siesta: Etot    =   -374905.329619
siesta: FreeEng =   -374905.385994

siesta: Final energy (eV):
siesta:  Band Struct. =  -75978.760258
siesta:       Kinetic =  270085.591080
siesta:       Hartree =  179214.764479
siesta:    Ext. field =       0.000000
siesta:   Exch.-corr. =  -81900.123417
siesta:  Ion-electron = -598113.350523
siesta:       Ion-ion = -144192.211238
siesta:       Ekinion =       0.000000
siesta:         Total = -374905.329619

siesta: Atomic forces (eV/Ang):
siesta:      1    0.825815    0.111275   -0.187403
siesta:      2   -0.443537   -0.452906   -0.429428
siesta:      3   -0.152144    0.252588    0.343994
siesta:      4    0.221392   -0.691712    0.276715
siesta:      5    0.048944   -0.930876    0.962099
siesta:      6   -0.681358    0.175136   -1.890142
siesta:      7    0.350710    1.682848    1.078105
siesta:      8    0.068874   -0.070120    0.501007
siesta:      9    0.160652   -0.638144   -0.718355
siesta:     10    0.229327    0.783258   -0.217308
siesta:     11   -0.765415    0.088893    0.522329
siesta:     12   -0.268745   -1.333394   -0.042552
siesta:     13    1.450796    0.605584   -0.644983
siesta:     14    0.347445    0.248294   -0.424481
siesta:     15   -0.611402    0.807150    0.609049
siesta:     16   -0.438299   -1.103681    0.436285
siesta:     17    0.318921   -0.264178   -0.713456
siesta:     18    0.649412    1.389591   -0.855966
siesta:     19   -0.515930   -0.030648    1.474227
siesta:     20   -0.294193    0.530432   -0.638967
siesta:     21    0.031905   -0.514243    0.715054
siesta:     22    0.051695   -0.641104   -0.542608
siesta:     23    0.009022    0.416220   -0.483636
siesta:     24    0.021388    0.839580    1.140642
siesta:     25    0.686618   -1.227455   -0.205549
siesta:     26   -0.370072   -0.283899    0.614022
siesta:     27   -0.241634   -0.032020   -0.963532
siesta:     28   -0.155525    0.651082    0.135836
siesta:     29    0.180789   -0.653003    0.805316
siesta:     30    0.216790   -1.509214   -0.467153
siesta:     31   -0.112658    1.408650   -0.609635
siesta:     32   -0.701045   -0.691808   -0.033435
siesta:     33    0.565194    0.279111   -0.680442
siesta:     34   -0.007498    0.290988    0.729732
siesta:     35   -0.021712   -0.202181   -0.783995
siesta:     36    1.544563    0.615406    0.131588
siesta:     37   -1.117945   -0.569353    0.974783
siesta:     38    0.311921    0.232020   -0.104137
siesta:     39   -0.028844   -0.247019    0.731706
siesta:     40   -0.483590   -0.315440   -0.259560
siesta:     41    0.153299    0.442347    0.144622
siesta:     42   -0.322186   -0.990347   -0.714152
siesta:     43    0.103145    1.657266   -0.846734
siesta:     44   -0.387665   -0.069993   -0.185787
siesta:     45    0.474390    0.490765    0.932777
siesta:     46   -0.060992   -0.920879    0.233669
siesta:     47   -0.345318    0.348013   -0.805167
siesta:     48    0.150711    1.517186    0.138707
siesta:     49    0.565223   -1.030550    0.502520
siesta:     50   -0.025834   -0.015983    0.386737
siesta:     51   -0.508769   -0.357750   -0.444698
siesta:     52   -0.355338    0.459895   -0.150976
siesta:     53    0.945623    0.570497    0.685773
siesta:     54    0.601562   -1.482340    0.600514
siesta:     55   -1.081978   -0.189687   -1.063247
siesta:     56    0.056926   -0.062728    1.282866
siesta:     57   -0.107427    0.417230   -0.444414
siesta:     58    0.171731    0.622886    0.678895
siesta:     59    0.213270   -0.344000    0.294749
siesta:     60   -0.333039   -1.371706   -1.180215
[...]
siesta:   1268    1.146817    0.115814    0.955733
siesta:   1269   -0.622428    0.536915    0.617103
siesta:   1270   -0.596673    0.299078   -0.258775
siesta:   1271    0.239545    0.086929   -0.007120
siesta:   1272   -0.318247   -0.449663   -0.305798
siesta:   1273   -0.423153    0.382266   -0.072927
siesta:   1274    0.138273   -0.423611    0.022872
siesta:   1275    0.188017    0.450617   -0.050145
siesta:   1276   -0.015598    0.103863   -0.037649
siesta:   1277   -0.185627   -0.476371   -0.276192
siesta:   1278    0.351933    1.391210   -0.679265
siesta:   1279   -0.357621    0.214640   -0.495745
siesta:   1280    0.098752    0.262987   -0.178148
siesta:   1281   -0.568553   -0.849462   -0.586492
siesta:   1282    0.793712   -0.472501   -0.561386
siesta: ----------------------------------------
siesta:    Tot    0.057811    0.039834    0.129516

siesta: Stress tensor (static) (eV/Ang**3):
siesta:     0.001507   -0.003510   -0.001355
siesta:    -0.003510   -0.000642   -0.000505
siesta:    -0.001355   -0.000505   -0.001572

siesta: Cell volume =      13041.289483 Ang**3

siesta: Pressure (static):
siesta:                Solid            Molecule  Units
siesta:           0.00000256          0.00004565  Ry/Bohr**3
siesta:           0.00023551          0.00419134  eV/Ang**3
siesta:           0.37732919          6.71533698  kBar
(Free)E+ p_basis*V_orbitals  =     -374629.786465
(Free)Eharris+ p_basis*V_orbitals  =     -374629.721245

Optical: Performing optical calculation:

Optical: Polarization type       = polarized
Optical: Minimum of energy range =   0.0001 Ry
Optical: Maximum of energy range =   7.3498 Ry
Optical: Gaussian broadening     =   0.0037 Ry
Optical: Scissor operator        =   0.0000 Ry
Optical: Number of bands         =    13386
Optical: Number of electrons     =     5346
Optical: BZ mesh dimensions      =    1   1   1

Optical: electric field direction
Optical:      0.00000     1.00000     0.00000

Optical: Checking f-sum rule  0.879942
Optical: For insulators and closed shell systems
Optical: this number should be close to 1 if an enough
Optical: number of unoccupied bands have been included

elaps:  Routine       Calls   Time/call    Tot.time        %
elaps:  siesta            1   66124.969   66124.969   100.00
elaps:  Setup             1       1.456       1.456     0.00
elaps:  bands             1       0.000       0.000     0.00
elaps:  writewave         1       0.001       0.001     0.00
elaps:  KSV_init          1       0.000       0.000     0.00
elaps:  IterMD            1    3141.299    3141.299     4.75
elaps:  hsparse           1       0.552       0.552     0.00
elaps:  overlap           1       1.176       1.176     0.00
elaps:  IterSCF          25     123.920    3097.996     4.69
elaps:  kinefsm           2       0.625       1.249     0.00
elaps:  nlefsm            2       3.608       7.216     0.01
elaps:  DHSCF            26      15.836     411.739     0.62
elaps:  DHSCF1            1       0.689       0.689     0.00
elaps:  DHSCF2            1      15.995      15.995     0.02
elaps:  REORD           158       0.002       0.237     0.00
elaps:  POISON           27       0.413      11.159     0.02
elaps:  DHSCF3           26      14.888     387.083     0.59
elaps:  rhoofd           26       5.532     143.840     0.22
elaps:  cellXC           26       1.128      29.327     0.04
elaps:  vmat             26       6.211     161.485     0.24
elaps:  MolMec            2       0.002       0.004     0.00
elaps:  diagon           25      92.090    2302.255     3.48
elaps:  r-eigvec         25      89.167    2229.179     3.37
elaps:  r-buildHS        25       0.017       0.430     0.00
elaps:  rdiag            26      89.154    2318.017     3.51
elaps:  rdiag1           26       2.937      76.353     0.12
elaps:  rdiag2           26      17.358     451.310     0.68
elaps:  rdiag3           26      62.089    1614.323     2.44
elaps:  rdiag4           26       6.393     166.220     0.25
elaps:  r-buildD         25       2.914      72.859     0.11
elaps:  DHSCF4            1       7.866       7.866     0.01
elaps:  dfscf             1       6.886       6.886     0.01
elaps:  overfsm           1       0.084       0.084     0.00
elaps:  optical           1   62981.532   62981.532    95.25
elaps:  phirphiopt        1      24.329      24.329     0.04
elaps:  transrate         1   62862.339   62862.339    95.07

>> End of run:   2-NOV-2014   6:24:58