>> Start of run:  30-MAY-2023  17:56:15

reinit: Reading from standard input
reinit: Dumped input in INPUT_TMP.18339
************************** Dump of input data file ****************************
SystemName          opt_dos
SystemLabel         opt_dos
NumberOfAtoms       1282
NumberOfSpecies     4
%block ChemicalSpeciesLabel
 1   1   H
 2   6   C
 3   9   F
 4  47   Ag
%endblock ChemicalSpeciesLabel
LatticeConstant 1.0 Ang
AtomicCoordinatesFormat Ang
UseStructFile .true.
%block WaveFuncKPoints
   0.000   0.000   0.000 from 210 to 225 # gamma point, start MO, end MO
%endblock WaveFuncKPoints
SpinPolarized .true.
MD.TypeOfRun  CG
MD.NumCGsteps 0
MD.VariableCell .false.
SolutionMethod diagon
XC.functional GGA
XC.authors PBE
PAO.BasisSize   DZP
DM.NumberPulay 7
DM.MixingWeight 0.1
DM.NumberKick 50
DM.KickMixingWeight 0.01
MaxSCFIterations 400
WriteMullikenPop 1
UseSaveData .true.
SaveRho .true.
LocalDensityOfStates .true.
DM.UseSaveDM		.true.
WriteCoorXmol           .true.
WriteWaveFunctions      .true.
WriteEigenvalues        .true.
WriteDenchar            .true.
WriteDM                 .true.
WriteMDXmol             .true.
WriteDM.NetCDF          .true.
WriteDMHS.NetCDF        .true.
WriteKpoints            .true.
LongOutput              .true.
COOP.Write              .true.
************************** End of input data file *****************************

reinit: -----------------------------------------------------------------------
reinit: System Name: opt_dos
reinit: -----------------------------------------------------------------------
reinit: System Label: opt_dos
reinit: -----------------------------------------------------------------------

initatom: Reading input for the pseudopotentials and atomic orbitals ----------
Species number:   1 Atomic number:    1 Label: H
Species number:   2 Atomic number:    6 Label: C
Species number:   3 Atomic number:    9 Label: F
Species number:   4 Atomic number:   47 Label: Ag

Ground state valence configuration:   1s01
Reading pseudopotential information in formatted form from H.psf

Valence configuration for pseudopotential generation:
1s( 1.00) rc: 1.33
2p( 0.00) rc: 1.33
3d( 0.00) rc: 0.37
4f( 0.00) rc: 1.33
Ground state valence configuration:   2s02  2p02
Reading pseudopotential information in formatted form from C.psf

Valence configuration for pseudopotential generation:
2s( 2.00) rc: 1.56
2p( 2.00) rc: 1.56
3d( 0.00) rc: 1.56
4f( 0.00) rc: 1.56
Ground state valence configuration:   2s02  2p05
Reading pseudopotential information in formatted form from F.psf

Valence configuration for pseudopotential generation:
2s( 2.00) rc: 1.41
2p( 5.00) rc: 1.41
3d( 0.00) rc: 1.41
4f( 0.00) rc: 1.41
Ground state valence configuration:   5s01  4d10
Reading pseudopotential information in formatted form from Ag.psf

Valence configuration for pseudopotential generation:
5s( 1.00) rc: 2.52
5p( 0.00) rc: 2.72
4d(10.00) rc: 2.52
4f( 0.00) rc: 2.52
For H, standard SIESTA heuristics set lmxkb to 2
 (one more than the basis l, including polarization orbitals).
Use PS.lmax or PS.KBprojectors blocks to override.
For C, standard SIESTA heuristics set lmxkb to 3
 (one more than the basis l, including polarization orbitals).
Use PS.lmax or PS.KBprojectors blocks to override.
For F, standard SIESTA heuristics set lmxkb to 3
 (one more than the basis l, including polarization orbitals).
Use PS.lmax or PS.KBprojectors blocks to override.
For Ag, standard SIESTA heuristics set lmxkb to 3
 (one more than the basis l, including polarization orbitals).
Use PS.lmax or PS.KBprojectors blocks to override.
Ag: nkbl increased for l=1 due to the presence of a polarization orbital

<basis_specs>
H                    Z=   1    Mass=  1.0100        Charge= 0.17977+309
Lmxo=0 Lmxkb= 2    BasisType=split      Semic=F
L=0  Nsemic=0  Cnfigmx=1
          i=1  nzeta=2  polorb=1  (1s)
            splnorm:   0.15000
               vcte:    0.0000
               rinn:    0.0000
               qcoe:    0.0000
               qyuk:    0.0000
               qwid:   0.10000E-01
                rcs:    0.0000      0.0000
            lambdas:    1.0000      1.0000
L=0  Nkbl=1  erefs: 0.17977+309
L=1  Nkbl=1  erefs: 0.17977+309
L=2  Nkbl=1  erefs: 0.17977+309
</basis_specs>

atom: Called for H                     (Z =   1)

read_vps: Pseudopotential generation method:
read_vps: ATM 3.2.2 Troullier-Martins
Valence charge for ps generation:    1.00000

xc_check: Exchange-correlation functional:
xc_check: GGA Perdew, Burke & Ernzerhof 1996
V l=0 = -2*Zval/r beyond r=  1.2656
V l=1 = -2*Zval/r beyond r=  1.2498
V l=2 = -2*Zval/r beyond r=  0.3563
All V_l potentials equal beyond r=  1.2656
This should be close to max(r_c) in ps generation
All pots = -2*Zval/r beyond r=  1.2656

VLOCAL1: 99.0% of the norm of Vloc inside     27.100 Ry
VLOCAL1: 99.9% of the norm of Vloc inside     61.762 Ry
atom: Maximum radius for 4*pi*r*r*local-pseudopot. charge    1.48935
atom: Maximum radius for r*vlocal+2*Zval:    1.24984
GHOST: No ghost state for L =  0
GHOST: No ghost state for L =  1
GHOST: No ghost state for L =  2

KBgen: Kleinman-Bylander projectors:
   l= 0   rc=  1.398961   el= -0.477209   Ekb= -2.001853   kbcos= -0.352188
   l= 1   rc=  1.470814   el=  0.001006   Ekb= -0.423408   kbcos= -0.024395
   l= 2   rc=  1.489346   el=  0.001895   Ekb= -0.481957   kbcos= -0.001574

KBgen: Total number of Kleinman-Bylander projectors:    9
atom: -------------------------------------------------------------------------

atom: SANKEY-TYPE ORBITALS:
atom: Selected multiple-zeta basis: split

SPLIT: Orbitals with angular momentum L= 0

SPLIT: Basis orbitals for state 1s

SPLIT: PAO cut-off radius determined from an
SPLIT: energy shift=  0.020000 Ry

   izeta = 1
                 lambda =    1.000000
                     rc =    4.708991
                 energy =   -0.457764
                kinetic =    0.979534
    potential(screened) =   -1.437298
       potential(ionic) =   -1.965615

   izeta = 2
                 rmatch =    3.759707
              splitnorm =    0.150000
                 energy =   -0.339003
                kinetic =    1.582546
    potential(screened) =   -1.921548
       potential(ionic) =   -2.471878

POLgen: Perturbative polarization orbital with L=  1

POLgen: Polarization orbital for state 1s

   izeta = 1
                     rc =    4.708991
                 energy =    0.764951
                kinetic =    1.476882
    potential(screened) =   -0.711931
       potential(ionic) =   -1.204335
atom: Total number of Sankey-type orbitals:  5

atm_pop: Valence configuration (for local Pseudopot. screening):
 1s( 1.00)
Vna: chval, zval:    1.00000   1.00000

Vna:  Cut-off radius for the neutral-atom potential:   4.708991

atom: _________________________________________________________________________

<basis_specs>
C                    Z=   6    Mass=  12.010        Charge= 0.17977+309
Lmxo=1 Lmxkb= 3    BasisType=split      Semic=F
L=0  Nsemic=0  Cnfigmx=2
          i=1  nzeta=2  polorb=0  (2s)
            splnorm:   0.15000
               vcte:    0.0000
               rinn:    0.0000
               qcoe:    0.0000
               qyuk:    0.0000
               qwid:   0.10000E-01
                rcs:    0.0000      0.0000
            lambdas:    1.0000      1.0000
L=1  Nsemic=0  Cnfigmx=2
          i=1  nzeta=2  polorb=1  (2p)
            splnorm:   0.15000
               vcte:    0.0000
               rinn:    0.0000
               qcoe:    0.0000
               qyuk:    0.0000
               qwid:   0.10000E-01
                rcs:    0.0000      0.0000
            lambdas:    1.0000      1.0000
L=0  Nkbl=1  erefs: 0.17977+309
L=1  Nkbl=1  erefs: 0.17977+309
L=2  Nkbl=1  erefs: 0.17977+309
L=3  Nkbl=1  erefs: 0.17977+309
</basis_specs>

[...]

SPLIT: Basis orbitals for state 2p

[...]

POLgen: Polarization orbital for state 2p

[...]

atm_pop: Valence configuration (for local Pseudopot. screening):
 2s( 2.00)
 2p( 2.00)
Vna: chval, zval:    4.00000   4.00000

[...]

<basis_specs>
F                    Z=   9    Mass=  19.000        Charge= 0.17977+309
Lmxo=1 Lmxkb= 3    BasisType=split      Semic=F
L=0  Nsemic=0  Cnfigmx=2
          i=1  nzeta=2  polorb=0  (2s)
            splnorm:   0.15000
               vcte:    0.0000
               rinn:    0.0000
               qcoe:    0.0000
               qyuk:    0.0000
               qwid:   0.10000E-01
                rcs:    0.0000      0.0000
            lambdas:    1.0000      1.0000
L=1  Nsemic=0  Cnfigmx=2
          i=1  nzeta=2  polorb=1  (2p)
            splnorm:   0.15000
               vcte:    0.0000
               rinn:    0.0000
               qcoe:    0.0000
               qyuk:    0.0000
               qwid:   0.10000E-01
                rcs:    0.0000      0.0000
            lambdas:    1.0000      1.0000
L=0  Nkbl=1  erefs: 0.17977+309
L=1  Nkbl=1  erefs: 0.17977+309
L=2  Nkbl=1  erefs: 0.17977+309
L=3  Nkbl=1  erefs: 0.17977+309
</basis_specs>

[...]

VLOCAL1: 99.0% of the norm of Vloc inside     24.916 Ry
VLOCAL1: 99.9% of the norm of Vloc inside     56.784 Ry
atom: Maximum radius for 4*pi*r*r*local-pseudopot. charge    1.61221
atom: Maximum radius for r*vlocal+2*Zval:    1.38760
GHOST: No ghost state for L =  0
GHOST: No ghost state for L =  1
GHOST: No ghost state for L =  2
GHOST: No ghost state for L =  3

[...]

SPLIT: Basis orbitals for state 2p

[...]

POLgen: Polarization orbital for state 2p

[...]

atm_pop: Valence configuration (for local Pseudopot. screening):
 2s( 2.00)
 2p( 5.00)
Vna: chval, zval:    7.00000   7.00000

[...]

<basis_specs>
Ag                   Z=  47    Mass=  107.87        Charge= 0.17977+309
Lmxo=2 Lmxkb= 3    BasisType=split      Semic=F
L=0  Nsemic=0  Cnfigmx=5
          i=1  nzeta=2  polorb=1  (5s)
            splnorm:   0.15000
               vcte:    0.0000
               rinn:    0.0000
               qcoe:    0.0000
               qyuk:    0.0000
               qwid:   0.10000E-01
                rcs:    0.0000      0.0000
            lambdas:    1.0000      1.0000
L=1  Nsemic=0  Cnfigmx=5
L=2  Nsemic=0  Cnfigmx=4
          i=1  nzeta=2  polorb=0  (4d)
            splnorm:   0.15000
               vcte:    0.0000
               rinn:    0.0000
               qcoe:    0.0000
               qyuk:    0.0000
               qwid:   0.10000E-01
                rcs:    0.0000      0.0000
            lambdas:    1.0000      1.0000
L=0  Nkbl=1  erefs: 0.17977+309
L=1  Nkbl=2  erefs: 0.17977+309 0.17977+309
L=2  Nkbl=1  erefs: 0.17977+309
L=3  Nkbl=1  erefs: 0.17977+309
</basis_specs>

atom: Called for Ag                    (Z =  47)

read_vps: Pseudopotential generation method:
read_vps: ATM 3.2.2 Troullier-Martins
Valence charge for ps generation:   11.00000

xc_check: Exchange-correlation functional:
xc_check: GGA Perdew, Burke & Ernzerhof 1996
V l=0 = -2*Zval/r beyond r=  2.4592
V l=1 = -2*Zval/r beyond r=  2.6507
V l=2 = -2*Zval/r beyond r=  2.4592
V l=3 = -2*Zval/r beyond r=  2.4592
All V_l potentials equal beyond r=  2.6507
This should be close to max(r_c) in ps generation
All pots = -2*Zval/r beyond r=  2.6507

VLOCAL1: 99.0% of the norm of Vloc inside      6.178 Ry
[...]
              0.016   0.011   0.011   0.009   0.114   0.106   0.079
1271  5.532   0.203   0.221   0.965   0.939   0.939   0.963   0.954   0.004
              0.012   0.011   0.004   0.007   0.110   0.115   0.085
1272  5.528   0.167   0.271   0.954   0.956   0.937   0.940   0.950   0.007
              0.007   0.011   0.013   0.010   0.086   0.107   0.111
1273  5.556   0.268   0.197   0.954   0.953   0.935   0.943   0.960   0.008
              0.008   0.012   0.011   0.005   0.088   0.110   0.103
1274  5.526   0.205   0.223   0.948   0.955   0.935   0.944   0.953   0.011
              0.008   0.014   0.012   0.011   0.089   0.112   0.106
1275  5.548   0.205   0.238   0.956   0.961   0.939   0.948   0.963   0.005
              0.004   0.009   0.009   0.004   0.092   0.114   0.099
1276  5.534   0.092   0.266   0.939   0.940   0.930   0.939   0.939   0.018
              0.018   0.019   0.017   0.018   0.135   0.132   0.132
1277  5.518   0.171   0.260   0.949   0.959   0.953   0.958   0.936   0.008
              0.005   0.008   0.005   0.014   0.101   0.079   0.112
1278  5.487   0.271   0.196   0.950   0.981   0.963   0.943   0.975   0.006
             -0.005   0.001   0.010  -0.001   0.073   0.055   0.068
1279  5.521   0.176   0.254   0.941   0.955   0.952   0.957   0.947   0.013
              0.007   0.008   0.007   0.009   0.116   0.076   0.104
1280  5.520   0.173   0.237   0.945   0.954   0.953   0.959   0.947   0.012
              0.009   0.008   0.006   0.009   0.112   0.083   0.115
1281  5.492   0.236   0.178   0.979   0.969   0.972   0.973   0.964  -0.005
             -0.001  -0.003  -0.002   0.002   0.084   0.073   0.073
1282  5.500   0.318   0.176   0.964   0.973   0.961   0.983   0.962   0.001
             -0.005   0.001  -0.007  -0.001   0.064   0.043   0.067

mulliken: Qtot =     2672.901

coxmol: Writing XMOL coordinates into file opt_dos.xyz
Writing WFSX for selected k-points in opt_dos.selected.WFSX

writewave: Wave Functions Coefficients

     Number of k-points =        1
        Number of Spins =        2
   Number of basis orbs =    13386

            k-point =        1    0.000000  0.000000  0.000000
     Spin component =        1
 Num. wavefunctions =       16
Use readwfsx utility to print wavefunction coefficients from WFSX file

            k-point =        1    0.000000  0.000000  0.000000
     Spin component =        2
 Num. wavefunctions =       16
Use readwfsx utility to print wavefunction coefficients from WFSX file
Writing WFSX for COOP/COHP in opt_dos.fullBZ.WFSX

writewave: Wave Functions Coefficients

     Number of k-points =        1
        Number of Spins =        2
   Number of basis orbs =    13386

[...]

            k-point =        1    0.000000  0.000000  0.000000
     Spin component =        2
 Num. wavefunctions =    13386
Use readwfsx utility to print wavefunction coefficients from WFSX file

siesta: Eigenvalues (eV):
  ik is       eps
   1  1  -31.8787  -31.7634  -31.7534  -31.7508  -31.7085  -31.6933  -31.6471  -31.6330  -31.5909  -31.5885
         -31.5874  -31.5736  -31.5669  -31.5613  -31.5557  -31.5364  -31.5362  -31.5331  -31.5143  -31.5109
  -31.5079  -31.5004  -31.4976  -31.4841  -31.4822  -31.4656  -31.4633  -31.4617  -31.4459  -31.4398
  -31.4276  -31.4238  -31.4198  -31.4148  -31.4146  -31.4116  -31.4063  -31.4032  -31.3957  -31.3929
  -31.3928  -31.3897  -31.3838  -31.3801  -31.3791  -31.3786  -31.3766  -31.3723  -31.3657  -31.3641
  -31.3612  -31.3605  -31.3559  -31.3529  -31.3491  -31.3396  -31.3281  -31.3254  -31.3148  -31.3133
  -31.3118  -31.3085  -31.3057  -31.3053  -31.3036  -31.3031  -31.3019  -31.2963  -31.2950  -31.2909
  -31.2862  -31.2848  -31.2793  -31.2771  -31.2747  -31.2719  -31.2695  -31.2671  -31.2625  -31.2583
  -31.2546  -31.2499  -31.2493  -31.2484  -31.2460  -31.2444  -31.2357  -31.2340  -31.2336  -31.2309
  -31.2304  -31.2292  -31.2287  -31.2257  -31.2250  -31.2215  -31.2210  -31.2174  -31.2162  -31.2099
  -31.2013  -31.2008  -31.2006  -31.1946  -31.1931  -31.1876  -31.1837  -31.1773  -31.1750  -31.1730
  -31.1700  -31.1695  -31.1668  -31.1665  -31.1626  -31.1593  -31.1581  -31.1530  -31.1492  -31.1479
  -31.1432  -31.1428  -31.1411  -31.1362  -31.1354  -31.1295  -31.1290  -31.1286  -31.1233  -31.1207
  -31.1148  -31.1147  -31.1080  -31.1066  -31.1048  -31.1001  -31.0990  -31.0967  -31.0947  -31.0929
  -31.0921  -31.0893  -31.0856  -31.0837  -31.0770  -31.0744  -31.0687  -31.0687  -31.0673  -31.0656
  -31.0642  -31.0639  -31.0494  -31.0382  -31.0237  -31.0211  -31.0196  -31.0196  -31.0185  -31.0162
  -31.0137  -31.0093  -31.0065  -31.0056  -31.0034  -30.9999  -30.9982  -30.9910  -30.9888  -30.9844
  -30.9740  -30.9715  -30.9614  -30.9592  -30.9531  -30.9414  -30.9394  -30.9181  -30.9123  -30.9041
  -30.9039  -30.8966  -30.8913  -30.8819  -30.8813  -30.8534  -30.8490  -30.8483  -30.8465  -30.8390
  -30.8328  -30.8323  -30.8281  -30.8199  -30.8123  -30.8039  -30.8035  -30.7939  -30.7801  -30.7637
  -30.7292  -30.7268  -30.6863  -30.6847  -30.6702  -30.6636  -30.6477  -30.6177  -30.0640  -29.9979
  -29.9765  -29.9205  -29.9168  -29.8732  -29.8590  -29.8401  -29.8235  -29.8176  -29.8164  -29.7935
  -29.7841  -29.7548  -29.7471  -29.7425  -29.7400  -29.7255  -29.7230  -29.7186  -29.7044  -29.6937
  -29.6836  -29.6830  -29.6735  -29.6725  -29.6715  -29.6641  -29.6588  -29.6548  -29.6429  -29.6323
  -29.6190  -29.6170  -29.6161  -29.6149  -29.6143  -29.6123  -29.6068  -29.6063  -29.6057  -29.5995
  -29.5984  -29.5983  -29.5906  -29.5899  -29.5872  -29.5841  -29.5838  -29.5823  -29.5704  -29.5702
  -29.5671  -29.5668  -29.5650  -29.5625  -29.5584  -29.5547  -29.5458  -29.5376  -29.5373  -29.5369
  -29.5315  -29.5261  -29.5248  -29.5236  -29.5224  -29.5139  -29.5084  -29.5070  -29.5065  -29.5018
  -29.4983  -29.4970  -29.4967  -29.4960  -29.4922  -29.4913  -29.4759  -29.4735  -29.4734  -29.4733
  -29.4715  -29.4679  -29.4608  -29.4604  -29.4542  -29.4506  -29.4498  -29.4488  -29.4480  -29.4466
  -29.4435  -29.4386  -29.4340  -29.4286  -29.4279  -29.4267  -29.4245  -29.4110  -29.4083  -29.4047
  -29.4005  -29.3987  -29.3976  -29.3976  -29.3969  -29.3958  -29.3942  -29.3890  -29.3828  -29.3802
  -29.3796  -29.3793  -29.3781  -29.3718  -29.3694  -29.3636  -29.3632  -29.3593  -29.3586  -29.3578
  -29.3564  -29.3535  -29.3504  -29.3478  -29.3459  -29.3444  -29.3443  -29.3405  -29.3371  -29.3350
  -29.3346  -29.3336  -29.3292  -29.3270  -29.3264  -29.3254  -29.3217  -29.3214  -29.3147  -29.3085
  -29.3060  -29.3053  -29.3031  -29.2976  -29.2964  -29.2950  -29.2907  -29.2880  -29.2819  -29.2813
  -29.2805  -29.2766  -29.2720  -29.2695  -29.2692  -29.2664  -29.2610  -29.2566  -29.2550  -29.2536
  -29.2422  -29.2414  -29.2314  -29.2287  -29.2257  -29.2206  -29.2189  -29.2173  -29.2171  -29.2097
  -29.2090  -29.2023  -29.1953  -29.1784  -29.1780  -29.1744  -29.1589  -29.1483  -29.1471  -29.1439
  -29.1427  -29.1253  -29.1109  -29.1043  -29.1042  -29.0864  -29.0799  -29.0725  -29.0663  -29.0513
  -29.0464  -29.0411  -29.0403  -29.0361  -29.0358  -29.0329  -29.0155  -29.0057  -29.0043  -28.9861
  -28.9819  -28.9790  -28.9569  -28.9101  -28.9069  -28.8929  -20.4946  -20.4526  -20.4148  -20.3611
  -20.3564  -20.3554  -20.3296  -20.3250  -20.2829  -20.2719  -20.2647  -20.2597  -20.2493  -20.2452
  -20.2422  -20.2343  -20.2314  -20.2200  -20.2157  -20.2140  -20.2074  -20.2038  -20.1963  -20.1908
  -20.1668  -20.1594  -20.1557  -20.1424  -20.1234  -20.1127  -20.1072  -20.1051  -20.0993  -20.0930
  -20.0881  -20.0841  -20.0796  -20.0643  -20.0547  -20.0533  -20.0478  -20.0446  -20.0428  -20.0148
  -20.0128  -20.0073  -20.0047  -19.9944  -19.9853  -19.9792  -19.9674  -19.9643  -19.9587  -19.9580
  -19.9481  -19.9376  -19.9334  -19.9276  -19.9161  -19.9124  -19.9096  -19.8933  -19.8861  -19.8731
  -19.8691  -19.8579  -19.8503  -19.8358  -19.8295  -19.8267  -19.8240  -19.8190  -19.7927  -19.7919
  -19.7821  -19.7816  -19.7762  -19.7578  -19.7539  -19.7404  -19.7370  -19.7131  -19.7079  -19.6939
  -19.6833  -19.6780  -19.6699  -19.6643  -19.6531  -19.6388  -19.6169  -19.6078  -19.6034  -19.5915
  -19.5837  -19.5784  -19.5644  -19.5480  -19.5325  -19.5245  -19.5141  -19.5003  -19.4970  -19.4794
  -19.4568  -19.4505  -19.4421  -19.4248  -19.4055  -19.3929  -19.3832  -19.3768  -19.3736  -19.3347
  -19.3212  -19.3078  -19.3048  -19.2863  -19.2842  -19.2478  -19.2347  -19.2265  -19.2092  -19.1982
  -19.1815  -19.1679  -19.1529  -19.1430  -19.1295  -19.1040  -19.0893  -19.0796  -19.0575  -19.0501
  -19.0340  -19.0132  -19.0006  -18.9917  -18.9643  -18.9614  -18.9312  -18.9177  -18.8997  -18.8928
  -18.8736  -18.8517  -18.8426  -18.8174  -18.8047  -18.7910  -18.7745  -18.7474  -18.7393  -18.7277
  -18.7034  -18.6877  -18.6616  -18.6449  -18.6376  -18.6291  -18.6074  -18.5969  -18.5802  -18.5598
  -18.5373  -18.5284  -18.5106  -18.4916  -18.4817  -18.4440  -18.4319  -18.4192  -18.4083  -18.4073
  -18.3823  -18.3692  -18.3421  -18.3363  -18.3123  -18.2855  -18.2814  -18.2654  -18.2626  -18.2500
[...]
  100.5996  100.6130  100.6437  100.7060  100.7178  100.7776  100.8062  100.8099  100.8660  100.8849
  100.8959  100.9112  100.9436  100.9700  101.0187  101.0507  101.0739  101.0964  101.1673  101.1813
  101.1949  101.2465  101.2823  101.3107  101.3463  101.3744  101.4035  101.4264  101.4708  101.5093
  101.5242  101.5726  101.5913  101.6222  101.6839  101.7196  101.7465  101.7927  101.8105  101.8276
  101.8706  101.8975  101.9492  101.9824  102.0036  102.0573  102.0692  102.1168  102.1288  102.1730
  102.2213  102.2495  102.2763  102.3356  102.3582  102.3779  102.4302  102.4660  102.4759  102.5717
  102.5922  102.6124  102.6682  102.6989  102.7862  102.8198  102.8621  102.8812  102.9823  103.0130
  103.0707  103.1055  103.1440  103.1697  103.2285  103.2881  103.3454  103.3656  103.4093  103.4447
  103.4792  103.4918  103.5432  103.5686  103.6132  103.6855  103.7742  103.8088  103.8441  103.8831
  103.9490  103.9786  104.0408  104.0777  104.1164  104.1501  104.2265  104.2392  104.2826  104.3186
  104.3727  104.4763  104.4959  104.5445  104.6362  104.7073  104.7299  104.7980  104.8910  104.9983
  105.0481  105.0898  105.1189  105.1592  105.1759  105.2215  105.3299  105.4186  105.4562  105.5158
  105.5772  105.6325  105.6711  105.7872  105.8290  105.9541  106.0694  106.1117  106.2174  106.3111
  106.3903  106.4835  106.6518  106.7126  106.9081  106.9534  107.1604  107.3715  107.4485  107.6401
  107.8404  107.9361  109.0322  109.2985  110.2571  112.1996
siesta: Fermi energy =      -2.330184 eV

siesta: Program's energy decomposition (eV):
siesta: Ebs     =    -75987.035423
siesta: Eions   =    528240.072706
siesta: Ena     =     58054.659153
siesta: Ekin    =    270072.187700
siesta: Enl     =    -93476.633883
siesta: Eso     =         0.000000
siesta: Edftu   =         0.000000
siesta: DEna    =       232.836889
siesta: DUscf   =       348.030837
siesta: DUext   =         0.000000
siesta: Exc     =    -81895.502651
siesta: eta*DQ  =         0.000000
siesta: Emadel  =         0.000000
siesta: Emeta   =         0.000000
siesta: Emolmec =         0.000000
siesta: Ekinion =         0.000000
siesta: Eharris =   -374904.494672
siesta: Etot    =   -374904.494662
siesta: FreeEng =   -374904.576728

siesta: Final energy (eV):
siesta:  Band Struct. =  -75987.035423
siesta:       Kinetic =  270072.187700
siesta:       Hartree =  179050.254802
siesta:       Edftu   =       0.000000
siesta:       Eso     =       0.000000
siesta:    Ext. field =       0.000000
siesta:   Exch.-corr. =  -81895.502651
siesta:  Ion-electron = -597784.468711
siesta:       Ion-ion = -144346.965803
siesta:       Ekinion =       0.000000
siesta:         Total = -374904.494662
siesta:         Fermi =      -2.330184

siesta: Atomic forces (eV/Ang):
siesta:      1   -0.806524    0.090418   -0.459491
siesta:      2   -0.325862    0.117715    0.380358
siesta:      3    0.152265    0.977881    0.431279
siesta:      4    0.696717   -0.245926   -0.210751
siesta:      5    0.448285    0.903741    0.885756
siesta:      6    1.461056   -0.317083   -1.779293
siesta:      7   -1.201429   -1.373810    0.254719
siesta:      8    0.760167    0.226247    0.717006
siesta:      9   -0.748519   -0.389185   -0.322052
siesta:     10   -0.377686    0.437304    0.545711
siesta:     11    0.350538   -0.219624    0.241003
siesta:     12    0.569152   -1.031484   -1.106955
siesta:     13   -1.310247    0.999212    0.116401
siesta:     14    0.600237   -0.958797    0.215836
siesta:     15   -0.302383    0.819972    0.304081
siesta:     16    0.415264    0.094356    0.348538
siesta:     17    0.915804   -0.214112    0.044364
siesta:     18   -1.213638    0.574612   -1.185703
siesta:     19    0.425354    0.406541    0.758980
siesta:     20   -0.071951   -0.372749    0.656415
siesta:     21   -0.178428   -0.952156    0.162314
siesta:     22   -0.028829   -0.076085   -0.385676
siesta:     23   -0.675257    0.694405    0.785651
siesta:     24    0.305970   -1.399128   -0.766001
siesta:     25    0.344509    0.898035   -0.229443
siesta:     26    0.116683   -0.459570    0.198862
siesta:     27    0.694636    0.488233   -0.323092
siesta:     28   -0.156470    0.727191    0.337115
siesta:     29    0.375380    0.579676   -0.079751
siesta:     30    0.053511    0.429554    1.285901
siesta:     31   -0.879710   -1.086548   -0.575920
siesta:     32   -0.508569   -0.058122    0.440455
siesta:     33   -0.451969   -0.787483    0.106532
siesta:     34    0.523135   -0.261604   -1.388563
siesta:     35    0.104117   -0.440080    0.075682
siesta:     36    0.728372   -0.442892   -0.551247
siesta:     37   -0.002208    1.439668    0.511243
siesta:     38    0.153667    0.396905    0.193286
siesta:     39    0.166304    0.232896    0.085813
siesta:     40   -0.873870    0.235104    0.732445
siesta:     41   -0.433699    0.794239   -0.109034
siesta:     42   -1.438025   -1.083347   -0.308050
siesta:     43    1.317308   -0.113798   -0.566363
siesta:     44    0.079257    0.338744    0.872404
siesta:     45   -0.168815   -0.386916   -0.144542
siesta:     46    0.862423    0.144001   -0.112116
siesta:     47    0.404669   -0.094462   -0.819544
siesta:     48    0.456705    1.454359   -0.032120
siesta:     49   -1.387304   -0.635549    0.121698
siesta:     50    0.379230   -1.088879   -0.339513
siesta:     51   -0.401489    0.439406    0.301251
siesta:     52   -0.314193   -0.634346   -0.047117
siesta:     53   -0.008916   -0.350429    0.321454
siesta:     54    0.722803    0.793600   -1.306833
siesta:     55   -0.324278    0.238396    1.011995
siesta:     56    0.408292   -0.052225    0.664403
siesta:     57    0.252657   -0.483959   -0.912819
siesta:     58    0.251716    0.380255    0.138094
siesta:     59   -0.075536    0.687786    0.455446
siesta:     60   -0.717971    0.356824    1.133564
[...]
siesta:   1268    0.895729    0.653530   -0.063567
siesta:   1269   -1.027904    0.434161    0.625036
siesta:   1270   -0.307446    0.047400    0.095345
siesta:   1271    0.322277    0.064727    0.127752
siesta:   1272   -0.257958   -0.170360    0.055915
siesta:   1273   -0.062921    0.198084    0.055856
siesta:   1274    0.272677   -0.403617    0.247034
siesta:   1275    0.424336    0.188088    0.093660
siesta:   1276   -0.053380    0.029096   -0.008002
siesta:   1277   -0.057541   -0.171001   -0.313425
siesta:   1278    0.154258    0.704854   -0.638319
siesta:   1279   -0.229816    0.087946   -0.319914
siesta:   1280    0.030194    0.108052   -0.458694
siesta:   1281   -0.608066   -0.793820   -0.702086
siesta:   1282    0.450456   -0.287567   -0.677315
siesta: ----------------------------------------
siesta:    Tot    0.468667   -0.943194    0.209096

siesta: Stress tensor (static) (eV/Ang**3):
siesta:    -0.000625   -0.001214    0.004324
siesta:    -0.001214    0.006189   -0.000372
siesta:     0.004324   -0.000372   -0.002195

siesta: Cell volume =      13041.289483 Ang**3

siesta: Pressure (static):
siesta:                Solid            Molecule  Units
siesta:          -0.00001223         -0.00003460  Ry/Bohr**3
siesta:          -0.00112300         -0.00317662  eV/Ang**3
siesta:          -1.79926800         -5.08956592  kBar
(Free)E+ p_basis*V_orbitals  =     -374628.977199
(Free)Eharris+ p_basis*V_orbitals  =     -374628.977209
     spin moment: S , {S} =    0.19727       0.0       0.0   0.19727

cite: Please see "opt_dos.bib" for an exhaustive BiBTeX file.
cite: Please clearly indicate Siesta version in published work: 4.1.5
cite: This calculation has made use of the following articles
cite: which are encouraged to be cited in a published work.
        Primary SIESTA paper
          DOI: www.doi.org/10.1088/0953-8984/14/11/302

>> End of run:  30-MAY-2023  19:00:08
Job completed