>> Start of run:  14-MAY-2012  20:27:57

reinit: Reading from standard input
************************** Dump of input data file ****************************
SystemName      optical
SystemLabel     optical
NumberOfAtoms   1282
NumberOfSpecies 4
MD.TypeOfRun    CG
MD.NumCGsteps   0
MD.ConstantVolume  .true.
SolutionMethod  diagon
XC.functional   GGA
XC.authors      PBE
PAO.BasisSize   DZP
DM.NumberPulay  7
DM.MixingWeight 0.1
DirectPhi       .true.
MeshCutoff      500 Ry
MaxSCFiterations 200
UseSaveData     .true.
WriteMullikenPop 1
OpticalCalculation      .true.
%block Optical.Mesh
 1 1 1
%endblock Optical.Mesh
Optical.PolarizationType  polarized
%block Optical.Vector
 0.0 0.0 1.0
%endblock Optical.Vector
Optical.Broaden         0.05 eV
Optical.EnergyMinimum   0.001 eV
Optical.EnergyMaximum   100.0 eV
%block ChemicalSpeciesLabel
 1   1   H
 2   6   C
 3   9   F
 4  47   Ag
%endblock ChemicalSpeciesLabel
LatticeConstant 1.0 Ang
%block LatticeParameters
  22.534   24.472   23.649   90.0 90.0 90.0
%endblock LatticeParameters
AtomicCoordinatesFormat Ang
%block AtomicCoordinatesAndAtomicSpecies < struct.coor
%endblock AtomicCoordinatesAndAtomicSpecies
************************** End of input data file *****************************

reinit: -----------------------------------------------------------------------
reinit: System Name: optical
reinit: -----------------------------------------------------------------------
reinit: System Label: optical
reinit: -----------------------------------------------------------------------

initatom: Reading input for the pseudopotentials and atomic orbitals ----------
 Species number:            1  Label: H Atomic number:           1
 Species number:            2  Label: C Atomic number:           6
 Species number:            3  Label: F Atomic number:           9
 Species number:            4  Label: Ag Atomic number:          47
Ground state valence configuration:   1s01
Reading pseudopotential information in formatted form from H.psf

Valence configuration for pseudopotential generation:
1s( 1.00) rc: 1.33
2p( 0.00) rc: 1.33
3d( 0.00) rc: 0.37
4f( 0.00) rc: 1.33
Ground state valence configuration:   2s02  2p02
Reading pseudopotential information in formatted form from C.psf

Valence configuration for pseudopotential generation:
2s( 2.00) rc: 1.56
2p( 2.00) rc: 1.56
3d( 0.00) rc: 1.56
4f( 0.00) rc: 1.56
Ground state valence configuration:   2s02  2p05
Reading pseudopotential information in formatted form from F.psf

Valence configuration for pseudopotential generation:
2s( 2.00) rc: 1.41
2p( 5.00) rc: 1.41
3d( 0.00) rc: 1.41
4f( 0.00) rc: 1.41
Ground state valence configuration:   5s01  4d10
Reading pseudopotential information in formatted form from Ag.psf

Valence configuration for pseudopotential generation:
5s( 1.00) rc: 2.52
5p( 0.00) rc: 2.72
4d(10.00) rc: 2.52
4f( 0.00) rc: 2.52
For H, standard SIESTA heuristics set lmxkb to 2
 (one more than the basis l, including polarization orbitals).
Use PS.lmax or PS.KBprojectors blocks to override.
For C, standard SIESTA heuristics set lmxkb to 3
 (one more than the basis l, including polarization orbitals).
Use PS.lmax or PS.KBprojectors blocks to override.
For F, standard SIESTA heuristics set lmxkb to 3
 (one more than the basis l, including polarization orbitals).
Use PS.lmax or PS.KBprojectors blocks to override.
For Ag, standard SIESTA heuristics set lmxkb to 3
 (one more than the basis l, including polarization orbitals).
Use PS.lmax or PS.KBprojectors blocks to override.

<basis_specs>
H                    Z=   1    Mass=  1.0100        Charge= 0.17977+309
Lmxo=0 Lmxkb= 2    BasisType=split      Semic=F
L=0  Nsemic=0  Cnfigmx=1
          n=1  nzeta=2  polorb=1
            splnorm:   0.15000
               vcte:    0.0000
               rinn:    0.0000
                rcs:    0.0000      0.0000
            lambdas:    1.0000      1.0000
L=0  Nkbl=1  erefs: 0.17977+309
L=1  Nkbl=1  erefs: 0.17977+309
L=2  Nkbl=1  erefs: 0.17977+309
</basis_specs>

atom: Called for H                     (Z =   1)

read_vps: Pseudopotential generation method:
read_vps: ATM 3.2.2 Troullier-Martins
Total valence charge:    1.00000

xc_check: Exchange-correlation functional:
xc_check: GGA Perdew, Burke & Ernzerhof 1996
V l=0 = -2*Zval/r beyond r=  1.2656
V l=1 = -2*Zval/r beyond r=  1.2498
V l=2 = -2*Zval/r beyond r=  0.3563
All V_l potentials equal beyond r=  1.2656
This should be close to max(r_c) in ps generation
All pots = -2*Zval/r beyond r=  1.2656

VLOCAL1: 99.0% of the norm of Vloc inside     27.100 Ry
VLOCAL1: 99.9% of the norm of Vloc inside     61.762 Ry
atom: Maximum radius for 4*pi*r*r*local-pseudopot. charge    1.48935
atom: Maximum radius for r*vlocal+2*Zval:    1.24984
GHOST: No ghost state for L =  0
GHOST: No ghost state for L =  1
GHOST: No ghost state for L =  2

KBgen: Kleinman-Bylander projectors:
   l= 0   rc=  1.398961   el= -0.477209   Ekb= -2.001853   kbcos= -0.352188
   l= 1   rc=  1.470814   el=  0.001006   Ekb= -0.423408   kbcos= -0.024395
   l= 2   rc=  1.489346   el=  0.001895   Ekb= -0.481957   kbcos= -0.001574

KBgen: Total number of  Kleinman-Bylander projectors:    9
atom: -------------------------------------------------------------------------

atom: SANKEY-TYPE ORBITALS:
atom: Selected multiple-zeta basis: split

SPLIT: Orbitals with angular momentum L= 0

SPLIT: Basis orbitals for state 1s

SPLIT: PAO cut-off radius determined from an
SPLIT: energy shift=  0.020000 Ry

   izeta = 1
                 lambda =    1.000000
                     rc =    4.708991
                 energy =   -0.457764
                kinetic =    0.979534
    potential(screened) =   -1.437298
       potential(ionic) =   -1.965615

   izeta = 2
                 rmatch =    3.759707
              splitnorm =    0.150000
                 energy =   -0.339003
                kinetic =    1.582546
    potential(screened) =   -1.921548
       potential(ionic) =   -2.471878

POLgen: Perturbative polarization orbital with L=  1

POLgen: Polarization orbital for state 1s

   izeta = 1
                     rc =    4.708991
                 energy =    0.764951
                kinetic =    1.476882
    potential(screened) =   -0.711931
       potential(ionic) =   -1.204335
atom: Total number of Sankey-type orbitals:  5

atm_pop: Valence configuration (for local Pseudopot. screening):
 1s( 1.00)
Vna: chval, zval:    1.00000   1.00000

Vna:  Cut-off radius for the neutral-atom potential:   4.708991

atom: _________________________________________________________________________

<basis_specs>
C                    Z=   6    Mass=  12.010        Charge= 0.17977+309
Lmxo=1 Lmxkb= 3    BasisType=split      Semic=F
L=0  Nsemic=0  Cnfigmx=2
          n=1  nzeta=2  polorb=0
            splnorm:   0.15000
               vcte:    0.0000
               rinn:    0.0000
                rcs:    0.0000      0.0000
            lambdas:    1.0000      1.0000
L=1  Nsemic=0  Cnfigmx=2
          n=1  nzeta=2  polorb=1
            splnorm:   0.15000
               vcte:    0.0000
               rinn:    0.0000
                rcs:    0.0000      0.0000
            lambdas:    1.0000      1.0000
L=0  Nkbl=1  erefs: 0.17977+309
L=1  Nkbl=1  erefs: 0.17977+309
L=2  Nkbl=1  erefs: 0.17977+309
L=3  Nkbl=1  erefs: 0.17977+309
</basis_specs>

[...]

SPLIT: Basis orbitals for state 2p

[...]

POLgen: Polarization orbital for state 2p

[...]

atm_pop: Valence configuration (for local Pseudopot. screening):
 2s( 2.00)
 2p( 2.00)
Vna: chval, zval:    4.00000   4.00000

[...]

SPLIT: Basis orbitals for state 2p

[...]

POLgen: Polarization orbital for state 2p

[...]

atm_pop: Valence configuration (for local Pseudopot. screening):
 2s( 2.00)
 2p( 5.00)
Vna: chval, zval:    7.00000   7.00000

[...]

<basis_specs>
Ag                   Z=  47    Mass=  107.87        Charge= 0.17977+309
Lmxo=2 Lmxkb= 3    BasisType=split      Semic=F
L=0  Nsemic=0  Cnfigmx=5
          n=1  nzeta=2  polorb=1
            splnorm:   0.15000
               vcte:    0.0000
               rinn:    0.0000
                rcs:    0.0000      0.0000
            lambdas:    1.0000      1.0000
L=1  Nsemic=0  Cnfigmx=5
L=2  Nsemic=0  Cnfigmx=4
          n=1  nzeta=2  polorb=0
            splnorm:   0.15000
               vcte:    0.0000
               rinn:    0.0000
                rcs:    0.0000      0.0000
            lambdas:    1.0000      1.0000
L=0  Nkbl=1  erefs: 0.17977+309
L=1  Nkbl=1  erefs: 0.17977+309
L=2  Nkbl=1  erefs: 0.17977+309
L=3  Nkbl=1  erefs: 0.17977+309
</basis_specs>

atom: Called for Ag                    (Z =  47)

read_vps: Pseudopotential generation method:
read_vps: ATM 3.2.2 Troullier-Martins
Total valence charge:   11.00000

xc_check: Exchange-correlation functional:
xc_check: GGA Perdew, Burke & Ernzerhof 1996
V l=0 = -2*Zval/r beyond r=  2.4592
V l=1 = -2*Zval/r beyond r=  2.6507
V l=2 = -2*Zval/r beyond r=  2.4592
V l=3 = -2*Zval/r beyond r=  2.4592
All V_l potentials equal beyond r=  2.6507
This should be close to max(r_c) in ps generation
All pots = -2*Zval/r beyond r=  2.6507

VLOCAL1: 99.0% of the norm of Vloc inside      6.178 Ry
VLOCAL1: 99.9% of the norm of Vloc inside     14.079 Ry
atom: Maximum radius for 4*pi*r*r*local-pseudopot. charge    3.19739
atom: Maximum radius for r*vlocal+2*Zval:    2.82168
GHOST: No ghost state for L =  0
GHOST: No ghost state for L =  1
GHOST: No ghost state for L =  2
GHOST: No ghost state for L =  3

KBgen: Kleinman-Bylander projectors:
   l= 0   rc=  2.966357   el= -0.323666   Ekb=  3.565490   kbcos=  0.247453
   l= 1   rc=  3.003670   el= -0.054265   Ekb=  1.619308   kbcos=  0.223076
   l= 2   rc=  2.786631   el= -0.547066   Ekb= -7.840816   kbcos= -0.714112
   l= 3   rc=  3.079709   el=  0.002953   Ekb= -2.732950   kbcos= -0.012571

KBgen: Total number of  Kleinman-Bylander projectors:   16
atom: -------------------------------------------------------------------------

atom: SANKEY-TYPE ORBITALS:
atom: Selected multiple-zeta basis: split

[...]

SPLIT: Basis orbitals for state 5s

[...]

SPLIT: Orbitals with angular momentum L= 2

SPLIT: Basis orbitals for state 4d

SPLIT: PAO cut-off radius determined from an
SPLIT: energy shift=  0.020000 Ry

   izeta = 1
                 lambda =    1.000000
                     rc =    3.954440
                 energy =   -0.527442
                kinetic =    6.210364
    potential(screened) =   -6.737807
       potential(ionic) =  -18.733043

   izeta = 2
                 rmatch =    2.490121
              splitnorm =    0.150000
                 energy =   -0.148928
                kinetic =    8.576261
    potential(screened) =   -8.725189
       potential(ionic) =  -21.658221

POLgen: Perturbative polarization orbital with L=  1

POLgen: Polarization orbital for state 5s

   izeta = 1
                     rc =    6.684855
                 energy =   -0.001728
                kinetic =    0.597115
    potential(screened) =   -0.598843
       potential(ionic) =   -7.554613
atom: Total number of Sankey-type orbitals: 15

atm_pop: Valence configuration (for local Pseudopot. screening):
 5s( 1.00)
 5p( 0.00)
 4d(10.00)
Vna: chval, zval:   11.00000  11.00000

[...]
              0.001   0.006   0.007   0.004   0.002
  36  6.939   1.464   0.281   1.358   1.827   1.893   0.123  -0.003  -0.021
              0.004   0.005   0.002   0.001   0.006
  37  6.921   1.467   0.279   1.853   1.642   1.495   0.002   0.057   0.108
              0.003   0.002   0.004   0.007   0.004
  42  6.955   1.454   0.285   1.622   1.729   1.792   0.044   0.012  -0.003
              0.004   0.005   0.004   0.003   0.003
  43  6.933   1.452   0.288   1.501   1.884   1.660   0.095  -0.016   0.049
              0.006   0.004   0.003   0.002   0.005
  48  6.959   1.464   0.281   1.801   1.556   1.775  -0.005   0.066   0.003
              0.003   0.005   0.004   0.005   0.003
  49  6.948   1.465   0.280   1.862   1.643   1.585  -0.005   0.046   0.053
              0.004   0.003   0.003   0.006   0.003
  54  6.945   1.456   0.286   1.749   1.504   1.842   0.014   0.080  -0.006
              0.002   0.006   0.006   0.004   0.002
  55  6.955   1.467   0.278   1.903   1.807   1.395  -0.025  -0.003   0.113
              0.005   0.001   0.003   0.005   0.005
  60  6.924   1.460   0.283   1.805   1.555   1.645   0.020   0.094   0.042
              0.003   0.003   0.004   0.006   0.003
  61  6.939   1.467   0.279   1.596   1.772   1.702   0.056   0.013   0.035
              0.005   0.004   0.003   0.003   0.004
  66  6.933   1.451   0.288   1.692   1.518   1.862   0.043   0.074  -0.015
              0.002   0.006   0.005   0.005   0.002
  67  6.934   1.457   0.282   1.501   1.769   1.766   0.096   0.021   0.021
              0.005   0.005   0.002   0.003   0.005
  72  6.913   1.444   0.292   1.526   1.740   1.733   0.090   0.029   0.039
              0.005   0.004   0.003   0.002   0.005
  73  6.935   1.453   0.285   1.799   1.383   1.894   0.004   0.114  -0.019
              0.002   0.005   0.007   0.005   0.001
  78  6.951   1.465   0.280   1.642   1.689   1.775   0.046   0.039  -0.004
              0.004   0.004   0.004   0.003   0.003
  79  6.951   1.447   0.290   1.474   1.895   1.769   0.080  -0.027   0.003
              0.006   0.004   0.003   0.002   0.005
  84  6.946   1.461   0.281   1.359   1.868   1.867   0.122  -0.015  -0.018
              0.004   0.005   0.003   0.001   0.006
  85  6.926   1.460   0.283   1.765   1.888   1.348   0.028  -0.012   0.145
              0.005   0.001   0.003   0.006   0.006
  90  6.937   1.447   0.291   1.849   1.867   1.371  -0.001  -0.017   0.111
              0.004   0.001   0.003   0.006   0.006
  91  6.929   1.457   0.283   1.443   1.739   1.844   0.111   0.029   0.004
              0.003   0.006   0.003   0.002   0.005
[...]
              0.006   0.003   0.003   0.003   0.004
1231  6.913   1.449   0.291   1.489   1.893   1.610   0.095  -0.013   0.080
              0.007   0.004   0.003   0.003   0.004
1236  6.950   1.470   0.277   1.889   1.742   1.447  -0.023   0.028   0.100
              0.005   0.002   0.003   0.005   0.006
1237  6.940   1.447   0.290   1.824   1.402   1.862  -0.003   0.108  -0.011
              0.001   0.006   0.007   0.004   0.002
1242  6.932   1.459   0.284   1.527   1.751   1.775   0.068   0.028   0.021
              0.005   0.005   0.003   0.002   0.004
1243  6.950   1.469   0.275   1.758   1.569   1.776   0.016   0.062   0.005
              0.003   0.004   0.005   0.005   0.002
1248  6.916   1.455   0.284   1.435   1.702   1.862   0.112   0.050  -0.001
              0.004   0.006   0.003   0.001   0.005
1249  6.925   1.471   0.275   1.721   1.807   1.489   0.035   0.024   0.085
              0.005   0.002   0.002   0.004   0.005

Species: Ag
Atom  Qatom  Qorb
1251 11.049   0.269   0.481   1.867   1.910   1.899   1.906   1.867   0.036
              0.015   0.027   0.017   0.035   0.264   0.207   0.250
1252 11.063   0.508   0.402   1.937   1.936   1.894   1.950   1.890   0.004
              0.000   0.017  -0.005   0.016   0.215   0.145   0.153
1253 11.076   0.595   0.392   1.936   1.931   1.912   1.952   1.894   0.003
              0.002   0.003  -0.005   0.008   0.205   0.118   0.131
1254 11.070   0.542   0.432   1.908   1.954   1.912   1.920   1.906   0.008
             -0.004   0.008   0.006   0.013   0.142   0.139   0.182
1255 11.011   0.474   0.440   1.905   1.933   1.900   1.927   1.926   0.010
              0.002   0.013   0.011   0.006   0.162   0.127   0.175
1256 11.050   0.478   0.381   1.913   1.965   1.926   1.922   1.929   0.008
             -0.004   0.002   0.006   0.002   0.157   0.169   0.197
1257 11.000   0.536   0.384   1.910   1.906   1.887   1.944   1.928   0.008
              0.012   0.022  -0.001   0.005   0.151   0.122   0.188
1258 11.025   0.325   0.481   1.875   1.912   1.907   1.903   1.863   0.029
              0.017   0.022   0.018   0.033   0.188   0.196   0.255
1259 10.988   0.541   0.422   1.869   1.958   1.888   1.920   1.920   0.028
             -0.003   0.017   0.008   0.013   0.123   0.159   0.124
1260 11.013   0.338   0.453   1.862   1.919   1.899   1.911   1.870   0.036
              0.014   0.024   0.017   0.031   0.224   0.203   0.212
1261 11.022   0.419   0.388   1.882   1.895   1.905   1.924   1.893   0.025
              0.024   0.019   0.013   0.019   0.229   0.185   0.202
1262 11.027   0.537   0.381   1.936   1.916   1.921   1.942   1.930  -0.001
              0.011   0.002   0.003   0.001   0.161   0.138   0.149
1263 11.006   0.496   0.418   1.926   1.928   1.917   1.944   1.923   0.006
              0.002   0.004   0.000   0.006   0.145   0.126   0.163
1264 11.036   0.328   0.506   1.884   1.919   1.881   1.916   1.898   0.025
              0.010   0.027   0.014   0.018   0.220   0.180   0.211
1265 11.081   0.443   0.447   1.884   1.914   1.899   1.915   1.882   0.022
              0.012   0.019   0.015   0.024   0.209   0.181   0.216
1266 11.050   0.390   0.464   1.891   1.917   1.891   1.916   1.858   0.019
              0.014   0.024   0.016   0.037   0.207   0.180   0.227
1267 10.966   0.499   0.389   1.853   1.964   1.895   1.915   1.966   0.034
             -0.006   0.019   0.010  -0.010   0.134   0.170   0.133
1268 11.024   0.615   0.332   1.958   1.946   1.948   1.971   1.943  -0.013
             -0.008  -0.014  -0.018  -0.009   0.146   0.115   0.115
1269 11.007   0.559   0.376   1.948   1.916   1.921   1.955   1.905  -0.007
              0.007   0.004   0.000   0.011   0.135   0.145   0.131
1270 11.066   0.429   0.442   1.921   1.882   1.876   1.924   1.886   0.011
              0.027   0.024   0.010   0.024   0.220   0.217   0.175
1271 11.030   0.291   0.532   1.914   1.869   1.874   1.915   1.903   0.016
              0.031   0.023   0.018   0.017   0.230   0.231   0.167
1272 11.085   0.498   0.409   1.906   1.914   1.880   1.887   1.918   0.015
              0.012   0.020   0.020   0.012   0.184   0.213   0.198
1273 11.024   0.351   0.512   1.892   1.882   1.870   1.884   1.896   0.021
              0.034   0.026   0.028   0.027   0.170   0.221   0.211
1274 11.081   0.464   0.399   1.899   1.910   1.880   1.888   1.918   0.021
              0.017   0.021   0.021   0.012   0.191   0.227   0.212
1275 11.062   0.354   0.510   1.912   1.916   1.877   1.889   1.920   0.013
              0.011   0.021   0.022   0.009   0.168   0.228   0.211
1276 11.070   0.161   0.573   1.880   1.887   1.870   1.887   1.881   0.032
              0.031   0.033   0.032   0.032   0.259   0.257   0.255
1277 11.107   0.559   0.388   1.895   1.907   1.899   1.907   1.871   0.015
              0.017   0.020   0.016   0.027   0.195   0.166   0.225
1278 10.970   0.528   0.356   1.906   1.932   1.937   1.902   1.937   0.013
              0.010  -0.004   0.016   0.005   0.133   0.137   0.161
1279 10.994   0.330   0.490   1.885   1.885   1.873   1.911   1.887   0.026
              0.028   0.037   0.016   0.029   0.232   0.164   0.202
1280 11.100   0.450   0.458   1.878   1.907   1.898   1.912   1.891   0.025
              0.016   0.019   0.013   0.019   0.230   0.174   0.211
1281 10.978   0.525   0.376   1.966   1.930   1.938   1.959   1.917  -0.015
              0.000  -0.003  -0.010   0.003   0.127   0.137   0.128
1282 10.919   0.393   0.419   1.941   1.894   1.923   1.950   1.919   0.003
              0.028   0.004  -0.004   0.009   0.153   0.153   0.135

mulliken: Qtot =     5346.000

siesta: Program's energy decomposition (eV):
siesta: Ebs     =    -75936.977919
siesta: Eions   =    528240.072706
siesta: Ena     =     58055.000269
siesta: Ekin    =    270083.420201
siesta: Enl     =    -93473.146817
siesta: DEna    =       228.844920
siesta: DUscf   =       347.569139
siesta: DUext   =         0.000000
siesta: Exc     =    -81901.535106
siesta: eta*DQ  =         0.000000
siesta: Emadel  =         0.000000
siesta: Emeta   =         0.000000
siesta: Emolmec =         0.000000
siesta: Ekinion =         0.000000
siesta: Eharris =   -374899.920129
siesta: Etot    =   -374899.920100
siesta: FreeEng =   -374899.986561

siesta: Final energy (eV):
siesta:  Band Struct. =  -75936.977919
siesta:       Kinetic =  270083.420201
siesta:       Hartree =  180636.257955
siesta:    Ext. field =       0.000000
siesta:   Exch.-corr. =  -81901.535106
siesta:  Ion-electron = -600910.223773
siesta:       Ion-ion = -142807.839377
siesta:       Ekinion =       0.000000
siesta:         Total = -374899.920100

siesta: Atomic forces (eV/Ang):
siesta:      1    0.026721   -0.550159   -1.103711
siesta:      2    0.135454    0.506728    0.520706
siesta:      3    0.277899   -0.693732    0.126130
siesta:      4   -0.793326    0.051731   -0.017027
siesta:      5    0.095123   -0.174965   -0.127002
siesta:      6   -1.261550    1.714493    0.057874
siesta:      7    1.257319   -0.085741    0.028646
siesta:      8   -0.442391    0.797953    0.463220
siesta:      9    1.089609    0.039743   -0.656689
siesta:     10   -0.533696   -1.174738    0.037775
siesta:     11   -0.294932    0.885076    0.135401
siesta:     12    0.113096   -1.241902   -1.056796
siesta:     13   -1.049349    0.132874    1.219873
siesta:     14    0.233589    0.257337    0.050766
siesta:     15    0.621667    0.749330    0.590250
siesta:     16    0.783879   -0.031853   -0.668333
siesta:     17    0.544196   -0.186093    0.949648
siesta:     18   -0.151439   -0.514965   -1.290291
siesta:     19   -1.144963    0.273129    1.260191
siesta:     20    0.003355    0.564038    0.167778
siesta:     21    0.407195    0.002391   -0.932962
siesta:     22   -0.446297   -0.228618   -0.168482
siesta:     23    0.197784   -0.313913   -0.367566
siesta:     24   -0.925260    0.008706    1.232498
siesta:     25    1.717882   -0.343181   -0.286370
siesta:     26   -0.262647    0.021098   -0.550124
siesta:     27   -0.579574    0.275831   -0.176884
siesta:     28    0.081954    0.521840    0.954542
siesta:     29   -0.248947   -0.378627    0.506018
siesta:     30    1.631012   -0.315507    0.689899
siesta:     31   -0.387071   -0.079244   -1.376940
siesta:     32   -0.397923   -0.263528    0.942212
siesta:     33    0.870289    0.038429   -0.939020
siesta:     34   -0.765203    0.259571   -0.250569
siesta:     35    0.204992   -0.445097    0.305271
siesta:     36    0.348946    0.689617   -0.768560
siesta:     37   -1.351892   -0.539427    1.085363
siesta:     38    0.783422   -0.699241   -0.264355
siesta:     39    0.660563   -0.119898   -0.586680
siesta:     40    0.326504    0.337538   -0.039486
siesta:     41   -0.005451    0.346325   -0.389629
siesta:     42   -0.304347    0.907932    0.890674
siesta:     43   -0.796057   -1.573663   -0.012997
siesta:     44   -0.075760   -0.314068   -0.489262
siesta:     45    0.502967    0.427738    0.120645
siesta:     46   -0.357422   -0.166154    0.476775
siesta:     47   -0.036234   -0.468820   -0.880279
siesta:     48    0.406434    0.623265   -0.907754
siesta:     49    0.400102    0.013213    0.755351
siesta:     50   -0.155506   -0.254850   -0.036931
siesta:     51   -0.536252   -0.553120    0.797430
siesta:     52   -0.926105   -0.013419   -0.408604
siesta:     53   -0.063183    0.498369    0.586218
siesta:     54   -0.054921    0.505955   -1.270623
siesta:     55    1.057674   -0.596544    0.852798
siesta:     56    0.301652    0.050664    0.857828
siesta:     57   -0.725133   -0.207133   -0.195117
siesta:     58    0.351341   -0.102333   -0.638791
siesta:     59    0.597916   -0.123997   -0.779696
siesta:     60   -0.765942    0.631169    1.551136
[...]
siesta:   1268    0.807956    0.253032    0.567573
siesta:   1269   -0.203930    0.440746    1.139971
siesta:   1270   -0.362667    0.344753   -0.383504
siesta:   1271    0.624419   -0.107198    0.086749
siesta:   1272   -0.233758   -0.200665    0.143216
siesta:   1273   -0.085642    0.538804    0.083102
siesta:   1274    0.561744   -0.508957    0.222288
siesta:   1275    0.055909    0.317831   -0.016145
siesta:   1276   -0.075256    0.050105   -0.138473
siesta:   1277   -0.004532   -0.103692   -0.301064
siesta:   1278    0.140625    0.925211   -0.634134
siesta:   1279   -1.003668    0.214660   -0.333836
siesta:   1280    0.105985   -0.044890   -0.301692
siesta:   1281   -0.596483   -0.387048   -0.635975
siesta:   1282    1.023109   -0.291304   -0.879815
siesta: ----------------------------------------
siesta:    Tot    0.072177    0.247757   -0.236547

siesta: Stress tensor (static) (eV/Ang**3):
siesta:    -0.002492   -0.000454    0.002517
siesta:    -0.000454    0.006191   -0.000205
siesta:     0.002517   -0.000205   -0.004784

siesta: Cell volume =      13041.289483 Ang**3

siesta: Pressure (static):
siesta:                Solid            Molecule  Units
siesta:           0.00000394         -0.00025122  Ry/Bohr**3
siesta:           0.00036188         -0.02306577  eV/Ang**3
siesta:           0.57979974        -36.95583306  kBar
(Free)E+ p_basis*V_orbitals  =     -374624.387032
(Free)Eharris+ p_basis*V_orbitals  =     -374624.345206

Optical: Performing optical calculation:

Optical: Polarization type       = polarized
Optical: Minimum of energy range =   0.0001 Ry
Optical: Maximum of energy range =   7.3498 Ry
Optical: Gaussian broadening     =   0.0037 Ry
Optical: Scissor operator        =   0.0000 Ry
Optical: Number of bands         =    13386
Optical: BZ mesh dimensions      =    1   1   1

Optical: electric field direction
Optical:      0.00000     0.00000     1.00000

Optical: Checking f-sum rule  0.880199
Optical: For insulators and closed shell systems
Optical: this number should be close to 1 if an enough
Optical: number of unoccupied bands have been included

elaps:  Routine       Calls   Time/call    Tot.time        %
elaps:  siesta            1   30353.279   30353.279   100.00
elaps:  Setup             1       5.371       5.371     0.02
elaps:  bands             1       0.000       0.000     0.00
elaps:  writewave         1       0.001       0.001     0.00
elaps:  KSV_init          1       0.000       0.000     0.00
elaps:  IterMD            1     184.759     184.759     0.61
elaps:  hsparse           1       0.532       0.532     0.00
elaps:  overlap           1       1.254       1.254     0.00
elaps:  IterSCF           1     145.538     145.538     0.48
elaps:  kinefsm           2       0.654       1.308     0.00
elaps:  nlefsm            2       3.794       7.588     0.02
elaps:  DHSCF             2      25.459      50.919     0.17
elaps:  DHSCF1            1       0.715       0.715     0.00
elaps:  DHSCF2            1      15.741      15.741     0.05
elaps:  REORD            14       0.001       0.019     0.00
elaps:  POISON            3       0.327       0.980     0.00
elaps:  DHSCF3            2      13.532      27.065     0.09
elaps:  rhoofd            2       5.009      10.019     0.03
elaps:  cellXC            2       1.217       2.434     0.01
elaps:  vmat              2       5.612      11.224     0.04
elaps:  MolMec            2       0.002       0.003     0.00
elaps:  diagon            1      93.824      93.824     0.31
elaps:  r-eigvec          1      91.281      91.281     0.30
elaps:  r-buildHS         1       0.011       0.011     0.00
elaps:  rdiag             2      92.267     184.533     0.61
elaps:  rdiag1            2       2.937       5.874     0.02
elaps:  rdiag2            2      21.983      43.966     0.14
elaps:  rdiag3            2      59.461     118.923     0.39
elaps:  rdiag4            2       6.723      13.446     0.04
elaps:  r-buildD          1       2.512       2.512     0.01
elaps:  DHSCF4            1       7.392       7.392     0.02
elaps:  dfscf             1       6.470       6.470     0.02
elaps:  overfsm           1       0.078       0.078     0.00
elaps:  optical           1   30161.926   30161.926    99.37
elaps:  phirphiopt        1      17.910      17.910     0.06
elaps:  transrate         1   30047.354   30047.354    98.99

>> End of run:  17-MAY-2012  16:32:58